Fe  O Si                                
   1.00000000000000     
     7.1655641991350141   -0.0000175351196874   -0.1411700455549950
    -0.0000498781090574    4.6905075937859699    0.0001220643382426
    -0.1001466896084342    0.0001407281322169    4.8025196577429723
   Fe   O    Si
     2     8     2
Direct
  0.7470505506783525  0.3560042475527325  0.0183030755312075
  0.2470461377414352  0.6439605921255449  0.5183198710027455
  0.1920842941731991  0.7720718718246360  0.8511655208777213
  0.3101511667950660  0.3058447264935538  0.3835056212230015
  0.6920955333532461  0.2279417029251292  0.3511993722883346
  0.8101339291797771  0.6941592820895082  0.8835044111399526
  0.9683878352485920  0.1874849819988142  0.9824322222505089
  0.4683742533310777  0.8125167558540980  0.4824409125321054
  0.5339853356390662  0.2689603716391602  0.8293446863187413
  0.0340039065473690  0.7310557958680732  0.3293422730691020
  0.0023352833140535  0.8453598132305800  0.0112054529318257
  0.5023517899987482  0.1546399033981771  0.5112365378347192
 
  0.00000000E+00  0.00000000E+00  0.00000000E+00
  0.00000000E+00  0.00000000E+00  0.00000000E+00
  0.00000000E+00  0.00000000E+00  0.00000000E+00
  0.00000000E+00  0.00000000E+00  0.00000000E+00
  0.00000000E+00  0.00000000E+00  0.00000000E+00
  0.00000000E+00  0.00000000E+00  0.00000000E+00
  0.00000000E+00  0.00000000E+00  0.00000000E+00
  0.00000000E+00  0.00000000E+00  0.00000000E+00
  0.00000000E+00  0.00000000E+00  0.00000000E+00
  0.00000000E+00  0.00000000E+00  0.00000000E+00
  0.00000000E+00  0.00000000E+00  0.00000000E+00
  0.00000000E+00  0.00000000E+00  0.00000000E+00
