    44
 Wannier centres, written by Wannier90 on24Jan2026 at 17:40:55 
X          5.47152370       3.34139845       4.18762443
X          1.93892906       1.34930444       1.85679835
X          1.49472008       3.49841750       4.17245369
X          5.12766151       1.19238207       1.70066519
X          6.91567682       1.04114164       0.00488699
X          3.28274266       3.64930570       2.47680160
X          3.81203125       1.54583584       3.90377214
X          0.27939598       3.14486371       1.57328712
X          5.76921956       3.03377020       3.97044382
X          2.23668600       1.65700300       1.63981258
X          1.35717482       3.80316570       3.83171200
X          4.99015475       0.88748536       1.36005617
X          3.31802967       3.71539977       2.00608003
X          6.85087926       0.97539003       4.33667761
X          0.22364244       3.60222403       1.19690085
X          3.75629817       1.08836755       3.52760220
X          2.79818821       3.68949125       2.28149191
X          6.33101787       1.00116690       4.61202726
X          2.54198280       1.28524081       1.97862397
X          6.07457865       3.40541273       4.30931721
X          4.53280897       1.03024444       1.72187730
X          0.89984037       3.66047826       4.19363279
X          0.70149493       3.39538117       1.74300558
X          4.23410852       1.29531445       4.07365407
X          5.63627603       2.82800899       4.41468338
X          2.10364488       1.86260243       2.08404136
X          4.92620612       1.32531820       1.18670188
X          1.29326072       3.36526583       3.65856094
X          3.31333250       4.22929408       2.32459431
X          6.84613390       0.46138784       4.65501639
X          3.67612295       1.15874939       4.13538138
X          0.14355018       3.53205759       1.80473554
Fe         5.35118790       1.66983010      -0.01751680
Fe         1.71828480       3.02057070       2.45444450
O          1.29111240       3.62152540       4.06071680
O          2.18398600       1.43461550       1.79804660
O          4.92407220       1.06919960       1.58896660
O          5.71655200       3.25606950       4.12876540
O          6.84064850       0.87952100       4.58146560
O          3.30781040       3.81117570       2.25091070
O          3.74323670       1.26166800       3.90759430
O          0.21063820       3.42906850       1.57696160
Si         0.01556930       3.96516820       0.05358790
Si         3.54842760       0.72540280       2.38432540
