    52
 Wannier centres, written by Wannier90 on24Jan2026 at 17:54:31 
X          2.15744494       1.36918846       1.52841808
X          5.68995212       3.32154774       3.85913930
X          3.43246210       3.67298607       2.04459101
X          6.96523561       1.01775455       4.37512591
X          1.55120286       3.64046814       4.18267110
X          5.18415085       1.05014676       1.71092905
X          0.17254758       3.71480846       1.65692622
X          3.70513680       0.97590019       3.98752318
X          3.49966099       1.42935458       3.80635969
X          7.13257983       3.26140495       1.33454598
X          7.11455736       0.68641191       0.03820927
X          3.48158172       4.00418090       2.51020735
X          2.00822728       1.33586059       2.04948528
X          5.54082846       3.35478799       4.38023981
X          0.98811303       3.89187148       4.19500596
X          4.62098680       0.79898901       1.72332813
X          6.11845631       3.36796848       4.26004060
X          2.58588276       1.32274516       1.92937616
X          1.08248109       3.35520013       4.10353922
X          4.71563023       1.33561448       1.63166132
X          6.49528910       1.10775736      -0.06875067
X          2.86239860       3.58277809       2.40320409
X          0.35008472       3.50551728       1.17556144
X          3.88271668       1.18519841       3.50620754
X          4.09642718       1.44369283       4.12041000
X          5.64863718       2.70782151       4.29150684
X          2.11597680       1.98287653       1.96087826
X          0.56374723       3.24696200       1.78975400
X          3.15606001       4.17677840       2.13300203
X          6.68888617       0.51390589       4.46354237
X          1.35980929       3.56285691       3.52945808
X          4.99275017       1.12770344       1.05768531
X          5.34706297       1.64443920      -0.02727933
X          1.71410357       3.04597055       2.44468874
X          1.71998556       3.02552114       2.45122472
X          5.35289283       1.66486912      -0.02074521
X          1.71767187       3.01883897       2.45226839
X          5.35045106       1.67142236      -0.01962721
X          5.34992367       1.68279817      -0.00240974
X          1.71693093       3.00774184       2.46964702
Fe         5.35118790       1.66983010      -0.01751680
Fe         1.71828480       3.02057070       2.45444450
O          1.29111240       3.62152540       4.06071680
O          2.18398600       1.43461550       1.79804660
O          4.92407220       1.06919960       1.58896660
O          5.71655200       3.25606950       4.12876540
O          6.84064850       0.87952100       4.58146560
O          3.30781040       3.81117570       2.25091070
O          3.74323670       1.26166800       3.90759430
O          0.21063820       3.42906850       1.57696160
Si         0.01556930       3.96516820       0.05358790
Si         3.54842760       0.72540280       2.38432540
