Fe  O Si                                
   1.0000000000000000     
    10.6619993953553767   -0.2319394024078950    0.4226758201223039
    -0.3360891451693240   16.0358697083864890    0.2784904960576952
     0.4400287531228335    0.2349603014203555   15.0605004691928954
   Fe   O    Si
    36   144    36
Direct
  0.2165179356856758  0.2428123283744487  0.1484521586780556
  0.4222619637712935  0.1533040631471349  0.3107557460313853
  0.0181651369886954  0.2361794234645971  0.4735081989021003
  0.3461770595839578  0.0767919568520098  0.6879674284271740
  0.1798330575641845  0.2039267618665329  0.7804857189997249
  0.3962105823167811  0.1191701997400369  0.9954300452217837
  0.1005818768646598  0.5402059920340923  0.1594778968155210
  0.2866623691971916  0.4358045071195557  0.3310307439272145
  0.1639162364830734  0.5645195887694923  0.4433162081850652
  0.3391678606201077  0.4416958248824824  0.6811500713836913
  0.1694661229664439  0.5589105697449486  0.8245295102868574
  0.4540821190942010  0.4359267192369707  0.9500418046955964
  0.1334318016447534  0.8766564597441698  0.1700459242938969
  0.3748504907214787  0.7952723662626280  0.3105146622392457
  0.2120533352258723  0.9213303776142112  0.4748738748556250
  0.4635033229735428  0.7578006782134271  0.6454264847474915
  0.1280662046704431  0.8591504976973398  0.8365049171410439
  0.3683102312579910  0.7871648168876837  0.9880105347451610
  0.6367104265798909  0.2250699998900172  0.1331333726612257
  0.8751466442458458  0.0970947610160645  0.3430501975663779
  0.5308120397049106  0.2198935391428214  0.4733603881737228
  0.9162612031701098  0.1105455509051217  0.6865682528786186
  0.6874351233366285  0.2299513941884236  0.7571524181155794
  0.8474937641355181  0.1142474140679579  0.0320269320729333
  0.5544035784479358  0.5468937518241677  0.1147626910395035
  0.8177067148784165  0.4230637242968177  0.3053249963398118
  0.6459213618368835  0.5489089888290125  0.4328313788533881
  0.8222760776957847  0.4393177409610550  0.6703500755469415
  0.6882843571006197  0.5553412652431017  0.7996887037006223
  0.9593698570029224  0.4307219195903993  0.9635578681004222
  0.6498628182383548  0.8804574534688222  0.1603576749324920
  0.8651062674514034  0.7722751182084572  0.3106995125259189
  0.7182161730026524  0.9131914798141857  0.4687321470025108
  0.9714664549265765  0.7663460094116106  0.6429644011713969
  0.6472948643633465  0.8717871763752008  0.8274244627157914
  0.8717575606603633  0.7795720358209575  0.9892420882810471
  0.0810597961562531  0.2976843065542311  0.1895393235430177
  0.1538943917555287  0.1388057965521541  0.1780515859455163
  0.3597786773762516  0.0769157988877566  0.1091871743381782
  0.3356547170516788  0.2419575315969628  0.2505897369456403
  0.9588468646681969  0.0159243624457891  0.2930852826577113
  0.3025435669308923  0.3390500660471401  0.1197925573594245
  0.2108527316994034  0.2211733402331658  0.0308981181425075
  0.3021476399113268  0.0849336850090002  0.2884960673585225
  0.9103726407942311  0.2552540714698071  0.5675917906886703
  0.1241223176898033  0.1456730599373844  0.4626951634074969
  0.3839440873275754  0.1587871307611906  0.4359446071387643
  0.3461973957102899  0.2003269852463440  0.7202255059217091
  0.0076315866417393  0.0371107795571797  0.6329379729974256
  0.1290982737409220  0.3013546254920745  0.5292020374155043
  0.0544192629657379  0.2866224425860526  0.3646190912722671
  0.2693504356124083  0.1142119173340022  0.5947793868372401
  0.0884464763617829  0.1871230811263326  0.8830231286598478
  0.1904299771567290  0.0866367122790774  0.7740512032118330
  0.3895080640517598  0.0308382383157966  0.7910612211013841
  0.4236251994637064  0.2012167976604227  0.9040375055890314
  0.9226506297348480  0.0215372181926110  0.9959695404838328
  0.1901455097506277  0.3128940591469983  0.7898581166582050
  0.0688924963606329  0.2067883063250863  0.6838339232583781
  0.2567275982999416  0.0867353254528720  0.9468825042781112
  0.9697052431848360  0.5129206398538433  0.2485282820873567
  0.1728675213111890  0.4812620357405427  0.0682912599022069
  0.4221642207561458  0.4736087777445845  0.0750438622072233
  0.3171216068065103  0.5521211860088181  0.3576437282297764
  0.8624317395717295  0.3260220632623845  0.2622388568310029
  0.1754892002726093  0.6347168106784172  0.2086359641928836
  0.0180048790675359  0.6047446315932795  0.0878584909695619
  0.2169830044318241  0.4637633258356173  0.2197535960595610
  0.1429790274909055  0.5434203419968828  0.5608005213615803
  0.1599301115451433  0.4465916999871495  0.4258339716405898
  0.3220630188020835  0.3519576029625908  0.4096336719397915
  0.3955886205991422  0.5463946457315486  0.6657794442746078
  0.9682991960861256  0.3728499885876336  0.6824757901435896
  0.2005729629023698  0.6698369564325879  0.4450273763296962
  0.0112923984245721  0.5811587258239274  0.4015915869428091
  0.2904083539182934  0.4145503373052545  0.5748669866137178
  0.1483419769098236  0.6049610878615065  0.9308082224024561
  0.0897188479650442  0.4592009670659123  0.8765506376575537
  0.2698325094763281  0.4588522365431751  0.7891192016076141
  0.3935708891254235  0.5325154735629518  0.9158581118999414
  0.0824835719705471  0.3345392059518808  0.9504833711594706
  0.2666314768455811  0.6422645835263063  0.7821511766597947
  0.0731717071343920  0.5457267590905723  0.7340142778890960
  0.3129317008238561  0.3770303053057847  0.9290488703848502
  0.0050822246882818  0.8548209716452356  0.2713401258817115
  0.0968829038442150  0.7782362130350812  0.1200351351886815
  0.3154558913380124  0.7155107812129375  0.0766640647352764
  0.3425660912442590  0.8993589056063279  0.3622731764079815
  0.9079897109404979  0.6739328950609389  0.2706074315944442
  0.2051688480946658  0.9685495031333641  0.2119224640658580
  0.0613948088965768  0.9369967274971229  0.0905744529066380
  0.2485161128174722  0.8016011995488167  0.2262871349436172
  0.1940931228566630  0.9436835194934217  0.5946336787178358
  0.1936134750334023  0.8128415720028709  0.4993164016613345
  0.4079883330085473  0.7570388129337106  0.4194055356695244
  0.4609059332740790  0.8635428847425840  0.6081551130366281
  0.0545771026162792  0.6758899699962063  0.6260264612437413
  0.2823839864682516  0.0200056919382849  0.4515076831850498
  0.0617403681591837  0.9321561198843229  0.4231021993533530
  0.3424711002747836  0.7092153466024216  0.5845306398334327
  0.9875833051593333  0.8646664234047970  0.9394964958247426
  0.1905827161331274  0.7894914589930954  0.7554154977835067
  0.4300089315153368  0.7708434934784671  0.7612406002338989
  0.3514578439322044  0.8818623780696142  0.0461279072309086
  0.9657836231935204  0.7015026819629262  0.9410101584093510
  0.2029906067762307  0.9462698075727434  0.8898748582577649
  0.0662680074944386  0.9271742768515869  0.7563983929075689
  0.2343383521224815  0.7903581000174084  0.9024918007681655
  0.5495818047488090  0.3097250146952274  0.1742114682923628
  0.5460171552400966  0.1488345345019725  0.2096266272374846
  0.7320473320158709  0.1241178590468788  0.1341701437063836
  0.9442177151447686  0.1725161683107526  0.2683518852338035
  0.5168773062445648  0.0257529669334628  0.2860882133333562
  0.7433375280257983  0.3049045809014957  0.0867229118573422
  0.5448642627591104  0.1894198588896739  0.0312940862277734
  0.7214612527084117  0.1042249190107208  0.3091115571109804
  0.4278351885348379  0.2677058520469675  0.5559528691343627
  0.6209547530812173  0.1270299309937230  0.4869328934056369
  0.8699901646778735  0.1705745258636461  0.4400550325913048
  0.8573532273310924  0.2165987187842582  0.7315868631869269
  0.4715538591692490  0.0282164691994831  0.6274965212376994
  0.6670563541743574  0.2825598483385779  0.4798093764561201
  0.5211704716664010  0.2521765833487062  0.3401434965749546
  0.7908039042220801  0.1066521084972379  0.6093667380317148
  0.6460176971981405  0.2830727249741852  0.8721616852846386
  0.6567250003877758  0.1230342466242929  0.7919299937606313
  0.8828452349400302  0.0595965470386268  0.7924037504942129
  0.9590474411711335  0.2020811590419929  0.0357834461794616
  0.4760842745149583  0.0230033628507552  0.9544010310351349
  0.7265188108354710  0.3482163044050242  0.7422195484833967
  0.5827056495330540  0.2291891744542170  0.6711458937038607
  0.7546059580105756  0.1222482878680531  0.9375195582864182
  0.4341085925872719  0.5585916800498131  0.2024596831002488
  0.6661741538286641  0.4731456860420224  0.0620915697762750
  0.9046388617942533  0.4222321295986650  0.0781233824278372
  0.7871778342808660  0.5352085721472810  0.3482282957502900
  0.4245492216641812  0.4055038359313350  0.2704662321656608
  0.6527066956534168  0.6198348532745988  0.1733474374254914
  0.5458652495557299  0.6214304894342119  0.0152778537343876
  0.7250290308062373  0.4348408078564863  0.2131942020055611
  0.5373099987862641  0.5389466455736526  0.5275945927077230
  0.6280536528866383  0.4341598054993536  0.4208358066727574
  0.8550446815265127  0.3884276101426942  0.4158233079712778
  0.9001044460921481  0.5326953652001681  0.6217682847699019
  0.4353223429495758  0.3567739951872684  0.7058233191418218
  0.7247783487560384  0.6364954661529754  0.4788472949323858
  0.5552358834614712  0.6026087794304575  0.3509881943750863
  0.7425923383596772  0.4074517961200955  0.5759692271401703
  0.5718619093482342  0.6231315759270056  0.8336913199974815
  0.6086062278951142  0.4519480720695281  0.8703763128631019
  0.8086420033988593  0.4756207797939152  0.7886932293771144
  0.9135472747439689  0.5366407916854896  0.9515770500167038
  0.5146426893210343  0.3443306730676639  0.9942048022967418
  0.8027673904258795  0.6411962561356364  0.7969199062731955
  0.6404659751906122  0.5267493611806626  0.6871638153306217
  0.8322605669036527  0.3716165846176740  0.9135713047792399
  0.5254578195278008  0.8639867103176223  0.2679978136033271
  0.5936995083729860  0.7826490723342706  0.1147401104591945
  0.8026972092836747  0.7045104465308244  0.0668301415181873
  0.8246573437807403  0.8847702312821855  0.3684260362372785
  0.4057395916871158  0.6996278176446628  0.2629043963910439
  0.7121090792084998  0.9746469888133641  0.2044276131238567
  0.5803206661069019  0.9429191614900556  0.0783998496497751
  0.7468608414927241  0.7791221202472285  0.2250493893393357
  0.6800282155012909  0.9464389080150167  0.5799249977845284
  0.6839476991285476  0.8026088046522374  0.4905824548066264
  0.8991761017205731  0.7454051808536636  0.4213759353806346
  0.9644681462679144  0.8733335989307791  0.6107142784793698
  0.5638906654088357  0.6726895933664645  0.6385934820446310
  0.8091305884068338  0.0255634210904288  0.4484394661260003
  0.5677037922339375  0.9388085279311001  0.4262852925408814
  0.8345363902591225  0.7268726679356040  0.5953377929477331
  0.5080001147262063  0.8565664801910216  0.9301195397285753
  0.6882125214865961  0.7919922938078539  0.7474692648494445
  0.9366251504308408  0.7732599258594465  0.7620645683260987
  0.8303723955016181  0.8683190995614607  0.0618702225080076
  0.3948708886776737  0.7003304747853960  0.9088952488587972
  0.7080435077024771  0.9666328191118274  0.8776247943960678
  0.5765983500658795  0.9309894033495970  0.7452151019104896
  0.7560922483032201  0.7893394592447578  0.8935090872210901
  0.9856787713170831  0.2715336088684864  0.2741414031849913
  0.2513579414676974  0.0643314140236004  0.1890559483073590
  0.9636213910349348  0.2760460228056081  0.6639209904214597
  0.2553832673859924  0.1114367196906789  0.4896381372014389
  0.0845496082765752  0.2339585938375976  0.9781222577109150
  0.2593773242840488  0.0356281336168584  0.8558203719643230
  0.9243538948529669  0.5827426570353280  0.3199296358991613
  0.2845803212541833  0.4375865237675722  0.1210919122370221
  0.0397616073857434  0.5745816053506959  0.6360351751169377
  0.2248702388482243  0.3759000792716650  0.4930706329416107
  0.0088674653847947  0.6122229893748958  0.9799842990156010
  0.1932443845657871  0.3834445153380992  0.8678331666361155
  0.9707927731500214  0.9261265053661812  0.3439569963126847
  0.2112831820386835  0.7237846362380863  0.1596724082810355
  0.0585327883314455  0.9436422996240462  0.6506105087963784
  0.2892065803922125  0.7377058362265673  0.4922089612308567
  0.9530382622184665  0.9281365239278219  0.0213897344529092
  0.2970905809166769  0.7375636051871889  0.8154355252843229
  0.4563518002793639  0.3080306470391369  0.2625086197946008
  0.6492653066872858  0.0677625993891444  0.2240747804970941
  0.4449196951091599  0.2658393530744383  0.6628752723433418
  0.7658186531495424  0.1088241349423470  0.5061565092699571
  0.5323471667136326  0.2564157316283447  0.9478346471346737
  0.7479028658533293  0.0638850004694431  0.8513502490730488
  0.4333939367250919  0.6045894974887117  0.2968002933927744
  0.7537977366695962  0.4065309188368570  0.1097278895687067
  0.5395306631094887  0.5727330568285517  0.6283098182125894
  0.7228504492150037  0.3786700257664018  0.4775235968638604
  0.4786495297388673  0.6183023384963204  0.9240876544721934
  0.7233773213429181  0.3857303651418358  0.8460438356848751
  0.4905815310141570  0.9370795643759423  0.3397852029891241
  0.6958530105866063  0.7157673816649981  0.1467811504381696
  0.5465363442667145  0.9423913540385260  0.6407869923406930
  0.7813425910832377  0.7272217080614521  0.4980033988579857
  0.4832023150846960  0.9329864834345151  0.0011612197094049
  0.7951829415073078  0.7416409776337518  0.7996797445608700

  0.00000000E+00  0.00000000E+00  0.00000000E+00
  0.00000000E+00  0.00000000E+00  0.00000000E+00
  0.00000000E+00  0.00000000E+00  0.00000000E+00
  0.00000000E+00  0.00000000E+00  0.00000000E+00
  0.00000000E+00  0.00000000E+00  0.00000000E+00
  0.00000000E+00  0.00000000E+00  0.00000000E+00
  0.00000000E+00  0.00000000E+00  0.00000000E+00
  0.00000000E+00  0.00000000E+00  0.00000000E+00
  0.00000000E+00  0.00000000E+00  0.00000000E+00
  0.00000000E+00  0.00000000E+00  0.00000000E+00
  0.00000000E+00  0.00000000E+00  0.00000000E+00
  0.00000000E+00  0.00000000E+00  0.00000000E+00
  0.00000000E+00  0.00000000E+00  0.00000000E+00
  0.00000000E+00  0.00000000E+00  0.00000000E+00
  0.00000000E+00  0.00000000E+00  0.00000000E+00
  0.00000000E+00  0.00000000E+00  0.00000000E+00
  0.00000000E+00  0.00000000E+00  0.00000000E+00
  0.00000000E+00  0.00000000E+00  0.00000000E+00
  0.00000000E+00  0.00000000E+00  0.00000000E+00
  0.00000000E+00  0.00000000E+00  0.00000000E+00
  0.00000000E+00  0.00000000E+00  0.00000000E+00
  0.00000000E+00  0.00000000E+00  0.00000000E+00
  0.00000000E+00  0.00000000E+00  0.00000000E+00
  0.00000000E+00  0.00000000E+00  0.00000000E+00
  0.00000000E+00  0.00000000E+00  0.00000000E+00
  0.00000000E+00  0.00000000E+00  0.00000000E+00
  0.00000000E+00  0.00000000E+00  0.00000000E+00
  0.00000000E+00  0.00000000E+00  0.00000000E+00
  0.00000000E+00  0.00000000E+00  0.00000000E+00
  0.00000000E+00  0.00000000E+00  0.00000000E+00
  0.00000000E+00  0.00000000E+00  0.00000000E+00
  0.00000000E+00  0.00000000E+00  0.00000000E+00
  0.00000000E+00  0.00000000E+00  0.00000000E+00
  0.00000000E+00  0.00000000E+00  0.00000000E+00
  0.00000000E+00  0.00000000E+00  0.00000000E+00
  0.00000000E+00  0.00000000E+00  0.00000000E+00
  0.00000000E+00  0.00000000E+00  0.00000000E+00
  0.00000000E+00  0.00000000E+00  0.00000000E+00
  0.00000000E+00  0.00000000E+00  0.00000000E+00
  0.00000000E+00  0.00000000E+00  0.00000000E+00
  0.00000000E+00  0.00000000E+00  0.00000000E+00
  0.00000000E+00  0.00000000E+00  0.00000000E+00
  0.00000000E+00  0.00000000E+00  0.00000000E+00
  0.00000000E+00  0.00000000E+00  0.00000000E+00
  0.00000000E+00  0.00000000E+00  0.00000000E+00
  0.00000000E+00  0.00000000E+00  0.00000000E+00
  0.00000000E+00  0.00000000E+00  0.00000000E+00
  0.00000000E+00  0.00000000E+00  0.00000000E+00
  0.00000000E+00  0.00000000E+00  0.00000000E+00
  0.00000000E+00  0.00000000E+00  0.00000000E+00
  0.00000000E+00  0.00000000E+00  0.00000000E+00
  0.00000000E+00  0.00000000E+00  0.00000000E+00
  0.00000000E+00  0.00000000E+00  0.00000000E+00
  0.00000000E+00  0.00000000E+00  0.00000000E+00
  0.00000000E+00  0.00000000E+00  0.00000000E+00
  0.00000000E+00  0.00000000E+00  0.00000000E+00
  0.00000000E+00  0.00000000E+00  0.00000000E+00
  0.00000000E+00  0.00000000E+00  0.00000000E+00
  0.00000000E+00  0.00000000E+00  0.00000000E+00
  0.00000000E+00  0.00000000E+00  0.00000000E+00
  0.00000000E+00  0.00000000E+00  0.00000000E+00
  0.00000000E+00  0.00000000E+00  0.00000000E+00
  0.00000000E+00  0.00000000E+00  0.00000000E+00
  0.00000000E+00  0.00000000E+00  0.00000000E+00
  0.00000000E+00  0.00000000E+00  0.00000000E+00
  0.00000000E+00  0.00000000E+00  0.00000000E+00
  0.00000000E+00  0.00000000E+00  0.00000000E+00
  0.00000000E+00  0.00000000E+00  0.00000000E+00
  0.00000000E+00  0.00000000E+00  0.00000000E+00
  0.00000000E+00  0.00000000E+00  0.00000000E+00
  0.00000000E+00  0.00000000E+00  0.00000000E+00
  0.00000000E+00  0.00000000E+00  0.00000000E+00
  0.00000000E+00  0.00000000E+00  0.00000000E+00
  0.00000000E+00  0.00000000E+00  0.00000000E+00
  0.00000000E+00  0.00000000E+00  0.00000000E+00
  0.00000000E+00  0.00000000E+00  0.00000000E+00
  0.00000000E+00  0.00000000E+00  0.00000000E+00
  0.00000000E+00  0.00000000E+00  0.00000000E+00
  0.00000000E+00  0.00000000E+00  0.00000000E+00
  0.00000000E+00  0.00000000E+00  0.00000000E+00
  0.00000000E+00  0.00000000E+00  0.00000000E+00
  0.00000000E+00  0.00000000E+00  0.00000000E+00
  0.00000000E+00  0.00000000E+00  0.00000000E+00
  0.00000000E+00  0.00000000E+00  0.00000000E+00
  0.00000000E+00  0.00000000E+00  0.00000000E+00
  0.00000000E+00  0.00000000E+00  0.00000000E+00
  0.00000000E+00  0.00000000E+00  0.00000000E+00
  0.00000000E+00  0.00000000E+00  0.00000000E+00
  0.00000000E+00  0.00000000E+00  0.00000000E+00
  0.00000000E+00  0.00000000E+00  0.00000000E+00
  0.00000000E+00  0.00000000E+00  0.00000000E+00
  0.00000000E+00  0.00000000E+00  0.00000000E+00
  0.00000000E+00  0.00000000E+00  0.00000000E+00
  0.00000000E+00  0.00000000E+00  0.00000000E+00
  0.00000000E+00  0.00000000E+00  0.00000000E+00
  0.00000000E+00  0.00000000E+00  0.00000000E+00
  0.00000000E+00  0.00000000E+00  0.00000000E+00
  0.00000000E+00  0.00000000E+00  0.00000000E+00
  0.00000000E+00  0.00000000E+00  0.00000000E+00
  0.00000000E+00  0.00000000E+00  0.00000000E+00
  0.00000000E+00  0.00000000E+00  0.00000000E+00
  0.00000000E+00  0.00000000E+00  0.00000000E+00
  0.00000000E+00  0.00000000E+00  0.00000000E+00
  0.00000000E+00  0.00000000E+00  0.00000000E+00
  0.00000000E+00  0.00000000E+00  0.00000000E+00
  0.00000000E+00  0.00000000E+00  0.00000000E+00
  0.00000000E+00  0.00000000E+00  0.00000000E+00
  0.00000000E+00  0.00000000E+00  0.00000000E+00
  0.00000000E+00  0.00000000E+00  0.00000000E+00
  0.00000000E+00  0.00000000E+00  0.00000000E+00
  0.00000000E+00  0.00000000E+00  0.00000000E+00
  0.00000000E+00  0.00000000E+00  0.00000000E+00
  0.00000000E+00  0.00000000E+00  0.00000000E+00
  0.00000000E+00  0.00000000E+00  0.00000000E+00
  0.00000000E+00  0.00000000E+00  0.00000000E+00
  0.00000000E+00  0.00000000E+00  0.00000000E+00
  0.00000000E+00  0.00000000E+00  0.00000000E+00
  0.00000000E+00  0.00000000E+00  0.00000000E+00
  0.00000000E+00  0.00000000E+00  0.00000000E+00
  0.00000000E+00  0.00000000E+00  0.00000000E+00
  0.00000000E+00  0.00000000E+00  0.00000000E+00
  0.00000000E+00  0.00000000E+00  0.00000000E+00
  0.00000000E+00  0.00000000E+00  0.00000000E+00
  0.00000000E+00  0.00000000E+00  0.00000000E+00
  0.00000000E+00  0.00000000E+00  0.00000000E+00
  0.00000000E+00  0.00000000E+00  0.00000000E+00
  0.00000000E+00  0.00000000E+00  0.00000000E+00
  0.00000000E+00  0.00000000E+00  0.00000000E+00
  0.00000000E+00  0.00000000E+00  0.00000000E+00
  0.00000000E+00  0.00000000E+00  0.00000000E+00
  0.00000000E+00  0.00000000E+00  0.00000000E+00
  0.00000000E+00  0.00000000E+00  0.00000000E+00
  0.00000000E+00  0.00000000E+00  0.00000000E+00
  0.00000000E+00  0.00000000E+00  0.00000000E+00
  0.00000000E+00  0.00000000E+00  0.00000000E+00
  0.00000000E+00  0.00000000E+00  0.00000000E+00
  0.00000000E+00  0.00000000E+00  0.00000000E+00
  0.00000000E+00  0.00000000E+00  0.00000000E+00
  0.00000000E+00  0.00000000E+00  0.00000000E+00
  0.00000000E+00  0.00000000E+00  0.00000000E+00
  0.00000000E+00  0.00000000E+00  0.00000000E+00
  0.00000000E+00  0.00000000E+00  0.00000000E+00
  0.00000000E+00  0.00000000E+00  0.00000000E+00
  0.00000000E+00  0.00000000E+00  0.00000000E+00
  0.00000000E+00  0.00000000E+00  0.00000000E+00
  0.00000000E+00  0.00000000E+00  0.00000000E+00
  0.00000000E+00  0.00000000E+00  0.00000000E+00
  0.00000000E+00  0.00000000E+00  0.00000000E+00
  0.00000000E+00  0.00000000E+00  0.00000000E+00
  0.00000000E+00  0.00000000E+00  0.00000000E+00
  0.00000000E+00  0.00000000E+00  0.00000000E+00
  0.00000000E+00  0.00000000E+00  0.00000000E+00
  0.00000000E+00  0.00000000E+00  0.00000000E+00
  0.00000000E+00  0.00000000E+00  0.00000000E+00
  0.00000000E+00  0.00000000E+00  0.00000000E+00
  0.00000000E+00  0.00000000E+00  0.00000000E+00
  0.00000000E+00  0.00000000E+00  0.00000000E+00
  0.00000000E+00  0.00000000E+00  0.00000000E+00
  0.00000000E+00  0.00000000E+00  0.00000000E+00
  0.00000000E+00  0.00000000E+00  0.00000000E+00
  0.00000000E+00  0.00000000E+00  0.00000000E+00
  0.00000000E+00  0.00000000E+00  0.00000000E+00
  0.00000000E+00  0.00000000E+00  0.00000000E+00
  0.00000000E+00  0.00000000E+00  0.00000000E+00
  0.00000000E+00  0.00000000E+00  0.00000000E+00
  0.00000000E+00  0.00000000E+00  0.00000000E+00
  0.00000000E+00  0.00000000E+00  0.00000000E+00
  0.00000000E+00  0.00000000E+00  0.00000000E+00
  0.00000000E+00  0.00000000E+00  0.00000000E+00
  0.00000000E+00  0.00000000E+00  0.00000000E+00
  0.00000000E+00  0.00000000E+00  0.00000000E+00
  0.00000000E+00  0.00000000E+00  0.00000000E+00
  0.00000000E+00  0.00000000E+00  0.00000000E+00
  0.00000000E+00  0.00000000E+00  0.00000000E+00
  0.00000000E+00  0.00000000E+00  0.00000000E+00
  0.00000000E+00  0.00000000E+00  0.00000000E+00
  0.00000000E+00  0.00000000E+00  0.00000000E+00
  0.00000000E+00  0.00000000E+00  0.00000000E+00
  0.00000000E+00  0.00000000E+00  0.00000000E+00
  0.00000000E+00  0.00000000E+00  0.00000000E+00
  0.00000000E+00  0.00000000E+00  0.00000000E+00
  0.00000000E+00  0.00000000E+00  0.00000000E+00
  0.00000000E+00  0.00000000E+00  0.00000000E+00
  0.00000000E+00  0.00000000E+00  0.00000000E+00
  0.00000000E+00  0.00000000E+00  0.00000000E+00
  0.00000000E+00  0.00000000E+00  0.00000000E+00
  0.00000000E+00  0.00000000E+00  0.00000000E+00
  0.00000000E+00  0.00000000E+00  0.00000000E+00
  0.00000000E+00  0.00000000E+00  0.00000000E+00
  0.00000000E+00  0.00000000E+00  0.00000000E+00
  0.00000000E+00  0.00000000E+00  0.00000000E+00
  0.00000000E+00  0.00000000E+00  0.00000000E+00
  0.00000000E+00  0.00000000E+00  0.00000000E+00
  0.00000000E+00  0.00000000E+00  0.00000000E+00
  0.00000000E+00  0.00000000E+00  0.00000000E+00
  0.00000000E+00  0.00000000E+00  0.00000000E+00
  0.00000000E+00  0.00000000E+00  0.00000000E+00
  0.00000000E+00  0.00000000E+00  0.00000000E+00
  0.00000000E+00  0.00000000E+00  0.00000000E+00
  0.00000000E+00  0.00000000E+00  0.00000000E+00
  0.00000000E+00  0.00000000E+00  0.00000000E+00
  0.00000000E+00  0.00000000E+00  0.00000000E+00
  0.00000000E+00  0.00000000E+00  0.00000000E+00
  0.00000000E+00  0.00000000E+00  0.00000000E+00
  0.00000000E+00  0.00000000E+00  0.00000000E+00
  0.00000000E+00  0.00000000E+00  0.00000000E+00
  0.00000000E+00  0.00000000E+00  0.00000000E+00
  0.00000000E+00  0.00000000E+00  0.00000000E+00
  0.00000000E+00  0.00000000E+00  0.00000000E+00
  0.00000000E+00  0.00000000E+00  0.00000000E+00
  0.00000000E+00  0.00000000E+00  0.00000000E+00
  0.00000000E+00  0.00000000E+00  0.00000000E+00
  0.00000000E+00  0.00000000E+00  0.00000000E+00
  0.00000000E+00  0.00000000E+00  0.00000000E+00
  0.00000000E+00  0.00000000E+00  0.00000000E+00
  0.00000000E+00  0.00000000E+00  0.00000000E+00
