   936
 Wannier centres, written by Wannier90 on17Aug2025 at 13:22:42 
X          4.68941833       0.40333071      11.98999983
X          1.59127723       2.27030785       3.07696651
X          9.43954595       6.05086967       6.74765330
X          9.64172667      12.09655964       7.03341153
X          3.41117803       1.10245279       4.62069093
X          9.70569093       8.61302718      14.95545454
X          4.16975715       9.05352436      10.30606277
X          9.93952410       0.97960395      12.50761824
X          4.48726435      11.95486168       6.66958926
X          4.69852341       6.63960010       4.46884493
X          4.42532826       8.66552947      13.80666086
X         10.08050691       2.49962980       4.22751099
X          2.98918388       1.39308198      14.59157712
X         10.24595553      12.44335843      12.27835023
X          7.15071787      12.69816058      11.60892106
X         10.01253279      14.01958016       9.74812388
X         10.26302898       0.05445862       4.55919177
X          2.00535232      10.05336506      14.32925558
X          4.61191817       3.30266086      13.67417832
X          0.54394602      12.45061309       2.11414590
X          6.46184473       6.84040323       6.70946619
X          5.30083738       5.42363270       0.48612457
X          6.01313677       9.99387338      12.79815890
X          3.22280636      14.15047814       0.95857981
X          4.66701202      13.95254959       9.43042362
X          3.56688692       5.45174450       6.20628252
X          7.08793245       2.05458953      12.43514339
X         10.48514049       6.16644766      10.92790154
X          1.50980717       7.68829238       1.02914624
X          5.83191594      12.47114626       2.20010933
X          9.04837537       7.70856634      12.47015284
X          2.87269113      10.49978936      11.80574085
X          8.41273280      13.65728546       1.77528236
X          7.81069098       4.73992310       1.41861013
X          8.54773963      10.90783532       1.53647912
X          3.52128636       6.12385885      14.49271379
X          3.38379128      11.25140944       1.45682850
X          9.36530189      10.61127122       4.42962866
X          1.79605600      13.03213716       8.02455582
X          5.95922150       5.14007904       2.88146832
X          7.03240195      12.80971060       8.12288467
X          9.04141713       4.87285505       4.52041886
X          1.84910163      12.65655015      11.58398282
X          1.82297286       8.72030303       8.75184285
X          3.40573093       5.25799664       1.95922632
X          9.51278778       8.70072622       9.96362891
X          5.78523593       8.34549842       8.40858254
X          2.11679449       1.41718568      11.64272367
X          6.88856684       9.70482805       3.28384025
X          1.50939649       7.11181625       6.50161171
X          0.13167170       9.98400328       1.58876269
X          1.86552062      10.95785991       7.01426203
X          5.92970126       2.79567105       0.97123557
X          6.61780545       3.70457386      10.22013039
X          0.77609533       4.89488886       2.72866979
X          6.07561282       9.48877869       5.91470298
X          4.87477299      12.38663137      12.04293068
X          1.31276584       2.89800539      13.42494149
X          5.62452124       9.64140537       0.90582411
X          9.72025543       4.22623176       8.87652468
X          5.51515510       0.31472635      14.32830658
X         10.52231641       8.17573045       4.02707684
X          0.53975161      15.27470627       1.64084535
X          3.33492914       0.24863115       6.67294980
X          6.12863034      15.22977031      11.84501902
X          3.70304654      11.14848171       9.13425887
X          2.24284050      15.33693240       9.41326475
X          7.66863998       1.45918880       5.23404923
X          2.81858995      13.01383244      14.10369860
X          6.06938954      15.24346714       1.65977201
X          8.93316021      10.15211434      12.44548028
X          7.61515642       7.14856401       3.61448865
X          0.73156669       4.94599268       5.65129903
X          2.91510817       2.08978778       9.23932129
X          3.95879820      11.19040239       4.11812637
X          7.31076515      15.42775898       9.21902513
X          4.65213398       4.59548470       8.58857996
X          0.68400009      15.27653161      11.80356179
X          5.44581203       0.69789440       9.55636621
X          5.80120338      14.81833714       7.07765160
X          8.90287089      11.33966430       9.62552149
X          7.60826629      15.53124406       3.49252746
X          8.33105215      12.85036545      14.22852059
X          9.79584491       6.48789497       1.74935117
X          2.00691463      15.05269722      13.54056748
X          6.22870071      10.82190746      10.29156662
X          6.78842337       7.32755187       1.15489558
X          2.48543344       5.19869607      11.84422935
X          7.16637477       8.25993548      10.68471698
X          1.27230813       8.96791770      11.49779516
X          5.86659566       3.99688376       5.24303196
X          9.10857080       5.72844927      14.00684683
X          2.44199420       3.38955305       0.55677316
X          0.49851344       0.97407657       9.45133852
X          8.13202637       2.01554000      14.49800240
X          7.41795180       4.36886601       7.77047349
X          3.42538664       3.80180470       3.65617536
X          1.91644402      10.11009062       3.59479305
X          5.51247163      13.89032951      14.15989793
X         -0.06222458      13.86910224       4.03889075
X          4.30608568       8.75620806       3.25841941
X          4.85577965       5.67131821      11.19307201
X          3.22242195       7.54056475      12.36574264
X          5.70732439      13.77165696       4.28706958
X          1.42868597       4.86146369       8.39229166
X          1.01289912       3.50455011      10.10666825
X          1.27972247       2.70339483       7.09389571
X          6.60543921       1.81629273       7.59381791
X          9.91245649       2.82021853       1.05692015
X         10.65406378      11.36266676      14.59875321
X         10.61465397       9.35218418       6.81519132
X          3.41710231      14.57757462       5.61285021
X          9.58064304       3.51646240      11.65683450
X          4.07250695       0.99427756       1.89041285
X          9.06983590       1.67723390       9.69638114
X          0.20543238      13.97761487      14.15127131
X          0.88485340      14.96187235       6.72391722
X          1.90676390      15.58486037       3.83816444
X          9.75651792       0.43740207       0.45916164
X          0.73174146      11.16843711       9.41678690
X          7.54238978      15.60030849      14.05812694
X          5.79202689       2.07642092       3.24153970
X          8.58285177      14.24956451       5.90073900
X          9.19470431       2.82219279       6.99404274
X          7.81297948       6.36095311       9.24191205
X          2.13092949       7.16674584       3.48748146
X          5.49195611       0.63769060       4.66727632
X          4.15438043       3.40034855      11.25555285
X          3.56548006       8.76647885       5.85132048
X          9.07164685       0.29505867       7.24898367
X          7.59971176      12.28744391       4.11704707
X          2.86547184       7.71606937      11.96669102
X          8.21619210       5.83633395      11.26911305
X          8.02518989       8.53801635       6.04080257
X          7.46238004       9.82249460       7.50243940
X          6.86406195       7.67812113      13.32355816
X          1.18640465       7.31544531      13.11693249
X          8.04784884       1.90377599       2.53583083
X          7.28460534       4.37673599      13.19437457
X          2.20647881      13.18559469       3.54126251
X          4.45348568       7.40028801       1.08675702
X          4.31277655       2.49784708       6.34186529
X          3.09162433       1.54098776       4.58803806
X          0.88104977       5.83387267      14.49786433
X          2.90765117       6.77330636       8.96052319
X          0.77928815      10.84229847       9.90050461
X          4.70583680      11.32481674      13.96552897
X          4.25307977       7.21607434       1.66436118
X          7.39181657      15.20883775      13.56173265
X          3.03958057       8.99661528       5.84748343
X          7.30080486       4.51863793       7.28556517
X          5.59246838       2.44710136       3.68542360
X          9.40118263       6.05095318      14.40969563
X          4.09505219       2.22919032       6.93780589
X          4.14613553      11.45740583      13.74886422
X          8.01968291      12.43494826      14.00659981
X          6.11884234      10.92056813       9.76512260
X          1.98471872       5.29371790      12.04702228
X          7.88948439       1.73779776       2.05525690
X          3.45155572       6.81663514       9.23241724
X          8.72625663       8.60122669       5.84868542
X          1.33382295       8.00729781      13.20009484
X          2.51611834      12.56400470       3.43410660
X          8.93991522       3.47590853      11.50824470
X          6.94890082       8.56986784      11.13487886
X          5.02012360       5.97507196      10.77324113
X          9.33945438       6.83625911       1.79696114
X          8.56116684      -0.04038885       7.08656731
X          7.32416936      15.46130591       3.95725009
X          9.48234609       2.37204425       6.69751105
X          8.11365173       5.64925497      11.96397814
X         10.25977130      13.36164455       4.83236703
X          1.19111935       3.44127372      10.64086015
X          2.94089202       1.65370271       8.90420244
X          3.99512235       6.47768593      14.26267876
X          2.06331940       3.79840522       0.43480716
X         10.85403211       0.27365963       9.78520333
X          2.39438779       7.50124960       3.89010257
X          6.37460338      10.33730216      12.99861446
X         10.76652129      13.99039697      15.14923679
X          1.79076343      14.98079053       9.48961435
X          0.55585962       4.43166559       5.95544196
X          2.27578855      10.81314634       6.71079628
X          7.05768869       7.07940055      13.57608465
X          3.36944180       0.42692693       7.20453415
X          6.23621194      15.10239359       6.96643959
X         10.10744887       8.65008710      14.57190847
X          6.80987537       4.60862100      13.50399172
X          0.45514313      15.19355803       6.30990674
X          4.17764278       8.70148005      14.26956397
X          5.23442448      14.03475070       4.41395903
X          5.60335644       3.99070459       5.76225873
X         10.50805461      13.82782439       9.67265046
X          4.13772293       8.37478122      10.38676830
X          9.77269842       8.38709320       9.62145643
X          8.19887910      12.36395779       4.17089888
X          3.31555196      14.41062973       6.18166965
X          7.73213185       1.83469078       4.87386953
X          3.92553514       4.14852705       3.95756655
X          4.51501378       4.10370746       8.65350316
X          7.29110506       1.85428648      11.98127962
X          8.72104995      13.60634722       6.00306248
X          1.09966583       5.18556968      14.40952993
X          7.67249188      12.87037772      11.71214555
X          8.03319394      11.07794192       1.46772996
X         10.41922195       8.00114600       4.56893305
X          0.04233229      15.06732172       1.72990997
X          5.75892951      13.69123108      14.57243946
X          3.14599160       5.67456848       6.64332727
X          5.61542517       9.83194157       5.77027200
X          7.26881557      14.94320362       9.48577526
X          2.36094758      12.95996765       7.95097963
X         10.41627491       9.38264786       1.94052476
X          4.19807595      10.83505739       4.56723518
X          8.10120049       4.65177715       1.84217532
X         10.28837461       0.26594841      15.12080147
X          7.57204773      12.58135595       7.99603486
X          7.62930976      10.55483201       7.65733034
X          6.13241069       3.49970762      10.41124567
X          5.20340054       0.22581589       9.47078974
X          1.39760169       2.16715583       6.94601162
X          5.60273646       3.21738892       0.80886702
X          5.89237695      14.81501148      11.58415144
X          5.19887541       3.31056047      13.78505398
X          7.92993317       6.72739988       8.86257368
X          2.37057407      12.54734889      11.91023471
X          1.30289009       8.64159173       8.67793592
X          5.75533161       4.84929734       3.34587655
X          9.22428697       5.12161526       4.10444250
X          0.74849937       9.19466469      11.17854503
X          9.80304632       1.18076914      11.89705139
X         10.07865589       4.15203419       9.35959199
X         10.38525698       2.93881734       0.64975448
X          1.20038846       4.55748718       2.98177625
X          1.53827653       9.93334960       3.20100983
X          3.84505000       1.32037464       1.39662487
X          1.76468386       7.70200410       6.71006078
X         10.43060927       2.67887672       4.62075678
X          5.18458676      13.79911605       9.46514782
X          5.75185969      10.10043102       0.59754180
X          4.41566889       6.43458089       4.05804297
X          0.47699423       9.40156252       6.23140614
X          3.53391684       3.39346335      11.18159439
X          5.58053241      15.05225257       1.75959787
X          7.29065082       7.50643036       1.29121342
X          9.15296876      11.81007446       7.14375845
X          0.99832324       3.33092068      13.37347846
X          4.66353541       8.83277713       3.73395162
X         10.15753250      12.30374275      11.64230617
X          4.74888458      12.38090263      11.37322304
X          2.55886903      15.37468605      13.61231025
X          1.82940021       9.65318441      13.77363931
X          0.47081834      14.90528133      11.48190744
X          2.83430559      11.30476073       1.45391956
X          6.30567415      12.14983414       2.46018050
X          5.74148699       0.28556576      14.80843457
X          3.22114082       1.29989482      14.05268903
X          8.61208170       1.39429901       9.29240249
X          8.71412625      11.82863226       9.55916086
X          5.54639110       8.79197359       8.22979446
X          8.97408429       6.35831566       6.95959863
X          1.84587966       7.36881525       1.44524871
X          8.52971941       2.19489469      14.25760085
X         10.73554825       5.76970038      10.57183355
X          2.47486065      12.60093992      13.98398568
X          3.80869676      14.30222480       0.92971599
X          1.89567000      15.93167078       3.38539587
X          5.55404409       0.29561590       4.26263312
X          9.57353380      10.31926445       4.91825530
X          8.56901405       7.27221330      12.50682781
X          6.95671935       2.04289892       7.95012210
X          1.50725810       2.13564028       2.56208385
X          8.50437296      13.95946567       1.30581356
X          3.01282007       5.68735667       1.80306738
X          1.85467934       4.90170251       7.96168085
X          2.97489709      10.79058186      12.30873402
X          7.49280321       6.63749743       3.69114787
X          3.94089971      11.96557141       6.85088561
X         10.32552309      10.91430204      14.70112230
X         10.10741414       0.43062387       5.04753627
X          3.46846010      11.59293240       9.27990619
X          5.67722765       5.28108137      15.09852763
X          1.09265575      12.22212429       2.29255969
X          2.47568236       1.35482684      12.14073484
X          6.66365880      10.19135118       3.08763711
X          0.10391367      13.68639835       4.49885867
X          5.52692992       4.81988419       2.86815010
X          6.98831131       6.83761938       6.49405818
X          0.66060117       3.21173966      10.39651050
X          2.37542800      10.94577744       7.27457751
X          8.25749798      11.29409578       1.89857688
X          8.68386358      10.53815657      12.80477627
X          7.75340045      10.16161452       8.01268066
X          0.10149414       9.68526070       1.07042301
X          8.35163851       6.64441055       9.42009129
X          6.11313636      14.65912237       2.02364413
X          0.95586166      14.66799825      11.97164544
X          9.58488906       4.96834247       4.53596497
X          6.44783047      14.63021243      12.04589456
X          6.11312711       9.95830416      13.35305335
X          4.11937377       0.47446798      12.23788337
X          0.28961630      14.86488608       1.30780579
X          8.44394492       1.66202963      14.21245278
X          7.84520171       6.71397586       3.25460546
X          8.85485666      11.56288601       9.09209256
X          5.88411529      14.87323343       6.55367836
X          1.51470246       5.32104890       8.00279244
X          4.09357976      11.69147754       4.65800747
X          2.86350348      12.64870886      13.59793501
X          2.02786615      12.89573748       7.52619754
X          5.90689076       3.06742563       0.40752136
X          1.42560406       9.12492967       8.89370095
X          4.60272993       6.04971387       4.45080597
X          5.51340981      14.19967833      14.69905537
X          2.26512813      15.52926682       3.47327902
X          1.41329296       3.39944645      13.73451197
X          7.10967422       9.99903689       2.83745745
X          9.65157354       0.65975282      12.24541276
X          6.75190397       7.76359997       1.60561431
X          3.23358738      10.28918649      12.13463093
X          6.19623256       4.03658858      10.41631875
X          9.99486337       2.99848724       4.54899550
X         10.64457092       8.88049600       6.60592033
X          3.07165943      11.58421876       1.84579859
X          1.99923047       1.95093089       2.80160502
X          7.45415873       4.36907242       1.94139830
X         10.07584070       8.58647358      10.07024532
X          7.20623190       4.89545138       7.69007566
X          9.86116152      10.70780293       4.60485240
X          6.60427435       8.39995010      10.64906846
X          1.44303368      10.07712947      14.21649159
X          7.70462704       1.32408300       4.65218826
X          9.09932712       6.23178612      13.92922517
X          9.85662379      12.02653527      12.19250120
X          3.46760225       3.98238065       4.20263238
X          0.80753387       4.49830866       5.35947105
X          4.88155296       4.32260736       9.02438654
X          7.57789059      12.39375466      11.98853830
X          8.63227241       1.91884215       9.24337689
X          4.69254470       8.97894714      14.21855779
X         10.13116389      -0.07364746       0.50826272
X          1.65248268       2.29273458       7.39669873
X          2.37620415       5.31948914      12.43560180
X          3.16942867       5.64722315       2.32519835
X          3.66298320       5.84360041       6.59302011
X          3.27252217       1.30191411       4.06966005
X          5.02618875      14.19707990       9.84654575
X          1.87399333       3.30720708       0.53396054
X          9.94187413      15.77906399       5.33319284
X          4.35528435      12.15144514      11.94841298
X          5.49187960      13.99342920       4.84308863
X          7.15439827       1.94572211       7.47837717
X          4.25219298      12.40390539       6.89413125
X         10.66599355      11.05293399      15.07690215
X          5.90499365       8.85491477       8.68324884
X          2.98886038       0.70138423       6.92425140
X          2.16520020      15.73281716      13.62484333
X          8.43167388      12.54834655      13.67798560
X          8.29940039       9.91770452      12.55771892
X         10.10796697       8.42177888       4.46254247
X          4.81721327       5.42703955      10.67060181
X          9.63947151      11.56426763       6.92736549
X          0.82402540       4.97816645       3.27792879
X          1.58025860      10.50143737       3.43546806
X          5.26415393       9.90424088       0.50588201
X          3.41519194       1.70899966       9.45031094
X          6.76826134      15.19634040       9.40561144
X          6.33821163      12.40278580       1.96147520
X          2.54677193       7.39935039       3.21673900
X          4.46022033       9.29549062       3.53294657
X          1.35750627       5.54852466      14.67404661
X         10.45215673      14.20263741      10.10906504
X          7.31241474       4.97482053      13.46267837
X         10.44855250      14.12246429      14.77116432
X          5.23340133       0.25413092      14.74419817
X          0.98002544      12.52597292       1.80770633
X          3.02736604       1.79466572      14.23753847
X          8.96063615      13.90139772       1.55486391
X          0.37856760      15.19322425       6.83604553
X          5.94552834      10.38635144       9.99035514
X          1.00874207       8.89191204      10.82858499
X          3.29945376       6.37820316      14.02060020
X         10.22302465       8.89374945      15.08684607
X          0.54914256       0.46123623       9.78222423
X          5.54622649       0.22797055       9.89486214
X          5.61154790       9.37645581       5.54070514
X         10.21877840       5.81347264      10.59585645
X          3.56464629      11.54798428       8.73862513
X          7.55758928      15.94463842      13.59819558
X          4.60813539       8.80393320      10.01833359
X          2.86366521       7.11770209      12.24707564
X          2.02756703       7.82483478       1.24644161
X          4.49008424       0.85828721      12.27894145
X          3.91118043      14.57708935       5.88561603
X          8.62430819       0.64621807       7.32175044
X          7.12060591      15.88678945       3.60962625
X          9.20812535       6.31741003       1.70332125
X          3.51971015      13.99222409       1.37517369
X         10.45465452       3.01385438       1.16214446
X          9.76701305       3.73822993       9.08369548
X          7.75158070      12.05637120       3.62159055
X          8.86070610       5.84481155       6.80982806
X          4.92274665       3.66483174      14.08073481
X          6.12583193       5.60474085      15.15786585
X          5.37624195       4.29262429       5.21628013
X          7.63637737       1.82831516      12.45769170
X          3.29714541       8.60202877       5.44973873
X          6.93128942       6.73437103       7.06102844
X          6.65382640       7.12656014      13.25064717
X          9.05408799      14.21891144       6.21372614
X          2.29651109      12.67842667       3.89284318
X          3.21799620       6.81752730       8.54656762
X          4.04023184       7.66381171       1.47562038
X          2.25645390      13.00512294      11.53814737
X          1.66311836      15.49796442       9.35421268
X          7.68185593       5.73394463      11.65176613
X          8.36615954       8.66780865       5.46492208
X          3.50480694       1.01593104       1.95579948
X          7.20736902      12.74391276       7.59387117
X          9.52602232       3.69312141      11.13176945
X          4.06785726       3.55471751      10.73789613
X          0.44751496      10.59986708       9.53058371
X          1.50393471       7.38765064      13.52580008
X          7.55749465       2.29413937       2.34300363
X          6.94049747       8.78099135      10.57223733
X          3.95026092       2.72677532       6.82714954
X          6.00350279       0.42347118       4.47367385
X          9.23737015       2.37735978       7.33657385
X          6.11799060       9.89132418      15.37021156
X          2.74282300       1.47373696      11.49897659
X          2.14779206       7.15186835       6.22265219
X          4.34864257      10.98891983      14.16266829
X          3.57263940       9.14626261       5.44486235
X          5.21280500      13.52621697       4.57457336
X          8.39017310       8.05294805      12.35464159
X         10.45377433      13.88773271       4.98180090
X          9.73643271      12.53063997      12.09460792
X          3.97966319       2.96256135      10.94301738
X          8.80701114       6.05028168      14.30346734
X          1.85402365      13.21371486      12.16948129
X          1.91700516       6.99390720       6.92880148
X          7.07285894       7.14157275       1.62879436
X          8.02352991      10.20098819       7.57425667
X          4.09055059      12.32083275       6.19128475
X          5.58930106       0.01268427       4.75122230
X         10.28624993       3.89544413       8.61101300
X          7.91628482      15.52613095      13.70669590
X          1.44047503       5.69045243      14.13541198
X         10.26202427      13.41607857      10.08518719
X          1.96604208      10.38370010       3.10760765
X          5.69372578      15.26986938       6.84103340
X          0.30466061       4.66082823       5.37513218
X          6.16555590       2.11970964       3.60497996
X          0.32260117      14.75117336       6.56234360
X          1.84353660       2.46632795       6.94042458
X          8.15069370       6.24217315       8.80980443
X          0.55826558       4.52877384       3.14654112
X          9.00348142       6.29888577       6.21081272
X          2.16172979       3.62534893       1.10946667
X          6.36134717      12.97766952       2.47478952
X          9.86394963       2.22128158       4.91129501
X         10.62609408       9.29779633       6.26254016
X         10.16655379       3.33157481       0.91256501
X          4.68251779       8.18135481      14.28360678
X          4.25856669       0.87462735      11.50490924
X          8.56825968      10.57799623      12.29213191
X          2.03198260      15.10869013       8.79075286
X          8.72715487      13.30866141       1.18924516
X          5.94761541       9.73097901       5.40417942
X          9.33243248      11.78169850       9.58905685
X         10.47493175       5.56953992      10.98651379
X          5.30576994       3.54291310       5.22511218
X          3.67348186       1.72145091      14.62585629
X          0.98417122      13.03373400       2.35792740
X          4.45025242      12.68640677      11.92233034
X          5.43815214       0.79974649      14.63988107
X          3.15392276       6.34811946       8.79079262
X          8.62556252       1.93885053      14.76616877
X          4.63434641       2.76461566       6.98132888
X          8.53998502      11.54933353       1.19925284
X          6.42140129       7.32175590      13.77766515
X          5.81198060      14.83115174       1.33481397
X          4.04976982      11.66178493       9.24814717
X          0.72272744       3.81401933      10.41715186
X          6.65009676       3.69382994      10.84099260
X          0.75994284       8.67323577      11.30808012
X          2.08091120      13.62052459       7.72473199
X         10.23460672       8.01022715      15.00251711
X          3.83254061       1.44909390       2.02906125
X         10.03798738       7.88861674       4.22922113
X          4.98079243       8.88576942       3.00656988
X          9.32915608      11.96929207       6.35424936
X          1.92701018       2.74177708       2.63956529
X          3.58067899      13.49450501       0.75610061
X          3.63357511      13.89325350       5.63114300
X         10.60337545       0.88087254      10.32143003
X          3.66298056       5.96628652      14.03748505
X          4.86843891      13.40393871       9.85102176
X          1.59647190       3.32779604      12.94368583
X          6.80901211       7.44776544       6.83423997
X          8.37057552      14.16267417       6.56499364
X          4.02100885       6.55773680       4.66443076
X          1.62159878       8.97716381       8.15902440
X          0.94250241      15.09573028      11.33384597
X          9.38028423       1.08371622      12.49671754
X          5.34173642       2.64976831       0.57129705
X          1.70810364      15.18065674       3.32215215
X          7.86074621      13.05293209      13.66763686
X          8.25437845       1.55612163       5.08064236
X          6.48305156       9.49656652       2.72000791
X          1.61989801       9.64919205      14.46431801
X          2.53612612      15.88788375       7.35291895
X          3.83951757       3.52614327       4.13928705
X          6.62807758       2.43836041       7.52921570
X          2.24078042      15.34646013      14.02398289
X          7.78011066       5.15338287       1.84341132
X          9.61894264      -0.13452664       0.46984513
X          4.59903543       8.84220262      10.56259072
X          3.23184817      11.82163696       1.13652944
X          5.56124355       6.09414251      14.99583208
X          7.56955983       1.60413559       2.60878471
X          8.43408322       8.02732483       5.58323975
X          4.79050295       2.91055970      14.32827809
X          7.47443192       2.59119853      12.08117858
X          2.22265382       4.55229222      12.08368306
X         10.12888494      11.59351246      14.99921714
X          1.48175406       8.01475939       1.71315338
X          4.90253468       0.66048028       9.95750507
X          7.19464996       4.46218733      13.80737200
X          8.07029966       6.77966320       4.03848429
X          1.12320321       4.63205989       7.76048713
X          5.07255053       4.13249282       8.32846394
X          8.48445429       1.70685706       9.74310462
X          0.84175606       7.51877434      13.66067757
X          7.68994054      12.70907047       3.73143340
X          4.41474090       6.05335409      10.81622034
X         10.30755420      13.48706952      14.99751293
X          9.52733381       2.94710449      11.24858636
X          7.23814029      13.19497209      12.27949810
X          5.11276256      13.57932777      14.67426998
X          6.66413871       9.67501518      12.85347462
X          0.60957585      14.67135318       1.99831867
X          1.91599819       7.79313871       3.30498432
X          5.61348473      11.16421617      10.11796739
X          7.43221613      13.39698638       7.85351542
X          2.32421274       2.04787609      11.84334507
X          6.11244517       4.43944144       2.81625255
X         10.61801195       0.14382344       4.90991332
X          9.47245652       7.98013482      10.17431177
X          3.82692809       1.77462568       4.59095970
X          4.33047846      11.67762222      14.40863645
X          3.26049543       2.05883494       8.78213103
X          2.80332249       4.95380159       2.14359190
X          9.08019004       5.58152910       4.64390835
X          6.69079875       4.19644398       7.57004362
X          2.26733202      13.17642551      13.56303607
X          2.80906831      12.93819713       3.93852043
X          0.23076312      11.40106521       9.79164978
X          4.72802914       7.79650578       1.65414022
X          6.32549558      15.01065608      11.35302349
X          8.84280174       7.45792617      11.77716035
X          4.50064165      11.20272672       4.23853662
X          7.06887707      15.05494575       3.39619095
X          6.23499138       8.70144894       7.86361149
X          7.23211625      14.90614016       8.72430714
X          0.38827203       9.30356771       1.81031403
X          2.58195117      10.02530779      12.31769294
X          6.11954029       2.71126577       3.12137681
X          8.93717303       0.58066215       6.65187548
X          3.29728987       6.20301598       5.96041775
X          9.81953781       2.83762114       7.17743406
X          9.38911290      11.15160937       4.94112862
X          9.63705170       6.65685595       1.08255783
X          3.38195579       7.33921083      11.59894126
X          1.99520120      10.17516792       7.02364057
X          7.88723298       5.05299734      11.54141791
X          7.60272055      14.57493597       7.63604668
X         10.54358267       6.93223460      15.05928956
X          6.93221240       8.72995131       6.97800644
X          9.06335619      12.24247062       5.28307245
X          3.03743124       6.97087446       5.21142156
X          4.60672240       2.08311751      15.21442228
X          5.78362766       8.64130481       2.14999737
X          8.70803666       6.66129302       5.06135783
X          3.83118023      12.73167551       5.07301013
X          4.10813233      12.75836327      15.25288894
X          1.22276036      14.06700715       2.85578036
X          3.95537790       1.28561648      10.52598309
X          1.41319396      13.92425160      12.91118277
X          3.97500507       1.31596290      10.53084324
X          2.22194267       3.40893934      11.91486321
X          0.31788599       3.88970054       7.20219926
X          6.77330169       3.48754850       2.33979980
X          6.96667182      14.02561874      12.97443238
X          8.98976457       1.65581973       0.85515274
X          0.96429454       8.67407883       2.59822475
X          6.98676928      14.02653468      12.97952042
X          8.91577209       7.00049944      10.55180701
X          4.62194290       2.43127154       4.91317897
X          6.74972695       3.48450924       2.34032203
X          7.50531298       8.93686155      12.53326532
X          0.93481592       8.65373431       2.59047987
X          2.28541552       3.87640510       2.39905376
X          9.47727401      12.52715859      15.47557579
X          3.76327652       7.16227909      10.52454241
X          1.96677587       9.11247863      12.65085706
X          2.19423921      14.82847215       7.50049201
X          5.79767623       3.50240804       7.43801979
X          1.98062773       9.10730812      12.64666328
X          6.70024671      14.00508891       2.93487520
X          1.75082477       9.11812686       6.90220985
X          6.88766111       8.75563554       6.94242245
X         10.01978977       1.72106152      10.76121819
X          1.20496768      14.06498146       2.86479512
X          2.19346399       3.41142825      11.88460360
X          7.51853406       8.91937949      12.47558074
X          2.34067834       3.85051468       2.41514226
X          8.72652674       6.66931881       5.05846873
X          5.11616214       7.09882612      14.61715337
X          1.45826833      13.94903679      12.88637881
X          4.95102144      12.18854276      10.13208305
X          2.15005494      14.84441554       7.49913999
X          7.59172475       3.72122089      11.75248710
X          4.99970514      12.19781380      10.12512382
X         10.36881750      12.20647982      10.32261647
X          4.62335202       2.05400299      15.19422920
X          6.70326217      14.00626276       2.93681666
X          0.30952920       3.92813042       7.20292745
X          8.89079967       7.02196731      10.59261543
X          9.43525538       1.42875263       5.54932911
X          1.79326062       9.11029060       6.90363420
X          8.99611939       1.62026236       0.89117906
X          3.96944938       1.31242869      10.53161284
X          5.79366592       3.51531055       7.42004332
X          5.10826284       7.10679550      14.59918379
X          5.77326062       8.69317355       2.11767034
X         10.02617672       1.71224284      10.75533926
X          8.70535003       6.67143423       5.06883697
X          7.54867299      14.59172856       7.61341659
X          3.86847559      12.73449394       5.05552798
X          4.62703358       2.04301847      15.18329930
X          9.43280581      12.55811901      15.44362946
X         10.38074302      12.21442237      10.30730835
X          7.60274939       3.68704535      11.73635481
X          4.08767739      12.78461038      15.23591782
X         10.51091503       6.91323902      15.03598690
X          9.10043651      12.25581135       5.26104034
X          4.59463742       2.43306809       4.89460103
X          5.77667507       8.66569552       2.11433704
X          3.05742715       7.00112335       5.22339531
X          9.02624317       1.65256497       0.86854492
X          1.20048884      14.07594093       2.86719403
X          6.93912927      14.00461504      12.99857323
X          1.44318296      13.94708509      12.88721677
X          3.75886951       7.16643842      10.53594649
X          9.44584461       1.42930466       5.56965994
X          9.46273622      12.52030919      15.48118605
X          8.92101467       7.01847209      10.56463632
X          3.04034061       7.01621716       5.21646391
X          9.09713137      12.27017167       5.25291327
X          6.78090427       3.49239795       2.32865969
X          6.89796726       8.75587967       6.93639432
X          2.00675889       9.08644840      12.61974649
X          0.98427000       8.69198137       2.59288859
X         10.49855817       6.90138443      15.02772816
X          6.72255267      13.99629547       2.92948125
X          4.97020709      12.20428481      10.13423673
X          0.33168500       3.86727128       7.22538169
X          7.55829362      14.59717443       7.61384241
X          4.08123957      12.77121324      15.25147438
X          3.74410719       7.15955337      10.50258767
X          7.49956316       8.93963281      12.47740558
X          7.58635879       3.69351428      11.76328312
X          3.87207066      12.73508350       5.04724715
X          2.28158361       3.87744572       2.39891395
X          2.14726191      14.83871213       7.50121277
X          8.99518107       1.64665883       0.86863591
X          5.78715716       3.50932462       7.41180904
X          1.73841647       9.11708996       6.89911579
X         10.05108812       1.71161758      10.75404480
X          4.58912462       2.43816110       4.89920426
X          5.77819409       8.66952176       2.10886609
X          3.05848035       7.00527341       5.22733700
X          8.70919250       6.66988153       5.06515813
X         10.39536924      12.23759824      10.30037233
X          9.11052157      12.25420669       5.25344436
X          3.97511917       1.31978744      10.52200875
X          7.56866481       3.72597854      11.77655430
X          4.62472117       2.04689474      15.19075912
X         10.39038929      12.19287741      10.29910699
X          4.96896537      12.19471419      10.12619909
X         10.04391179       1.75104735      10.75701962
X          2.17487904       3.41372507      11.87811066
X          9.44879874       1.43322935       5.57187602
X          1.43649206      13.94397956      12.89276632
X          5.13510233       7.13551851      14.64854445
X          2.29286075       3.88526254       2.39651672
X         10.50390695       6.90923435      15.03481666
X          6.76587740       3.49899785       2.32818263
X          0.95701182       8.67945343       2.59335692
X          6.97265363      14.02944391      12.97597691
X          9.45793855      12.53248814      15.48290396
X          7.50381598       8.93093275      12.48930731
X          4.09662659      12.76777050      15.25515539
X          2.00144937       9.11808084      12.63432084
X          3.86323410      12.75384684       5.05084576
X          3.79060486       7.16368435      10.52358495
X          6.70370988      14.00668232       2.93757943
X          8.91313020       7.00649936      10.56736750
X          0.32394926       3.89406399       7.19916399
X          6.88252746       8.76833333       6.94418930
X          2.15922342      14.82942772       7.49633025
X          5.79570333       3.53186556       7.39265032
X          1.75380627       9.12201248       6.90851527
X          1.19147982      14.06901986       2.86461753
X          5.11399242       7.10857676      14.62005663
X          7.56207857      14.58004149       7.60924800
X          2.19155922       3.40801991      11.88606850
X          4.58044114       2.43200084       4.89271412
X          9.04887882       1.62428192       0.92151981
Fe         2.29223070       3.87836820       2.39490160
Fe         4.58737440       2.43344010       4.90131070
Fe         0.32265660       3.89438490       7.20472210
Fe         3.96785610       1.31277870      10.52884030
Fe         2.19227850       3.41181580      11.88730830
Fe         4.62236300       2.05298750      15.19233110
Fe         0.96102140       8.67681500       2.59477270
Fe         3.05558790       6.99979510       5.22802130
Fe         1.75301780       9.11870560       6.90306070
Fe         3.76748400       7.16435350      10.52482710
Fe         1.98182060       9.11704290      12.64510760
Fe         5.11295880       7.10836660      14.62143600
Fe         1.20284020      14.06695470       2.86151560
Fe         3.86600870      12.73890010       5.05642230
Fe         2.16022160      14.83672690       7.49804980
Fe         4.97118980      12.19613790      10.12739780
Fe         1.44477690      13.94406730      12.89157840
Fe         4.09711900      12.76959000      15.25482690
Fe         6.77154510       3.49279600       2.33685720
Fe         9.44913240       1.43462110       5.56345100
Fe         5.79390600       3.51428880       7.41464400
Fe        10.03413300       1.72149330      10.75812880
Fe         7.58531750       3.70592810      11.75769580
Fe         9.01167350       1.64301450       0.87237360
Fe         5.77774440       8.66829360       2.11502130
Fe         8.71055320       6.66627560       5.06179130
Fe         6.89278910       8.75411660       6.94453850
Fe         8.91443040       7.01162950      10.56570970
Fe         7.50372930       8.93363500      12.48929050
Fe        10.50803300       6.91088280      15.03711810
Fe         6.70348680      14.00584990       2.93494720
Fe         9.10092590      12.25645300       5.26002090
Fe         7.55696230      14.58737040       7.61722850
Fe        10.38313700      12.21477450      10.30740110
Fe         6.97254980      14.02414430      12.97780680
Fe         9.46796780      12.53135330      15.48405520
O          0.84761380       4.79936000       2.97172130
O          1.67251860       2.23201250       2.78524950
O          3.85815500       1.17561950       1.81790360
O          3.60769780       3.86102650       3.98326290
O         10.34683860       0.10183000       4.82372720
O          3.16448050       5.39493740       2.02643590
O          2.18737380       3.50506160       0.61605810
O          3.31989920       1.35969070       4.49625890
O          9.87036110       4.01543130       9.00409480
O          1.47803210       2.41592030       7.06145280
O          4.23207320       2.55966770       6.77204850
O          3.94074860       3.30134500      11.04907500
O          0.34740630       0.74204890       9.54592330
O          1.50802780       4.92688200       8.10853870
O          0.64433030       4.66928920       5.59416930
O          3.09514880       1.90876400       9.10333010
O          1.26868180       3.18764250      13.38826640
O          2.34185140       1.52699810      11.76221620
O          4.49066000       0.59004370      12.08700170
O          4.84686730       3.34084390      13.85035040
O         10.26831730       0.36538230      15.39577980
O          2.26973130       5.15901140      12.06316650
O          0.96593900       3.46072530      10.38558890
O          3.12473420       1.55381090      14.39319190
O         10.27596920       8.05861000       4.29567480
O          1.71141660       7.69340620       1.23559440
O          4.37496140       7.51444450       1.44053230
O          3.35296200       8.86422250       5.67409370
O          9.20106680       5.08963110       4.40477150
O          1.74955010      10.18655440       3.39309970
O          0.02738020       9.71407330       1.49921870
O          2.25430470       7.43815470       3.53046630
O          1.58857300       8.81282120       8.65770770
O          1.74245930       7.22444630       6.60524290
O          3.49579720       5.66549480       6.40343320
O          4.32709040       8.82659250      10.34634310
O         10.49900360       5.91474180      10.79153880
O          2.10920870      10.79946120       6.97365560
O          0.10179030       9.41112450       6.21479050
O          3.20996580       6.71538900       8.89598140
O          1.78788360       9.88537380      14.24961420
O          1.18795730       7.54883210      13.36709640
O          3.06997390       7.48092160      12.12636780
O          4.42028380       8.66325450      14.10793490
O          1.18524480       5.56882180      14.44278510
O          2.97113550      10.42120330      12.07115140
O          0.91973120       8.90669600      11.23753000
O          3.61857000       6.19171730      14.22920900
O         -0.11371190      13.77037310       4.32672570
O          0.82422760      12.48542700       2.06547070
O          3.15664950      11.41868400       1.48719770
O          3.50958530      14.42766750       5.85127270
O          9.57355930      10.66008350       4.64695260
O          1.95524310      15.53374030       3.54811010
O          0.37953230      15.03259900       1.65099140
O          2.47984200      12.84990020       3.73627760
O          2.01391490      15.22748340       9.30032620
O          2.01083310      13.10703450       7.82815930
O          4.28008930      12.14369080       6.69973220
O          4.89155710      13.88365120       9.59442260
O          0.63021140      10.97291630       9.63956920
O          3.20273060       0.36139910       6.92486000
O          0.53116530      15.03302630       6.65782370
O          3.67027740      11.43079380       9.14558800
O         10.65241310      13.85736300      14.80751640
O          2.09905780      12.79347120      11.67735600
O          4.66065060      12.44027110      11.86109140
O          3.47115660      14.07075150       1.08885240
O         10.47548850      11.24630240      14.77565910
O          2.23782520      15.33626310      13.75128710
O          0.72777330      15.03039930      11.67795750
O          2.63000690      12.83177700      13.91113460
O          5.83220370       4.88017310       2.94226230
O          5.86385470       2.30930220       3.42931920
O          7.82241230       1.85207190       2.36465390
O         10.12735040       2.61049750       4.48865580
O          5.62817730       0.36030640       4.53427520
O          7.86114970       4.73737730       1.70519430
O          5.75945080       2.91848960       0.75435720
O          7.79320850       1.57663090       4.98934460
O          4.71624070       4.32429120       8.62831760
O          6.79219030       2.00742140       7.63129230
O          9.41214320       2.63692130       7.04267620
O          9.39022240       3.44638870      11.44076750
O          5.29434020       0.49054050       9.65758410
O          7.22831910       4.48911240       7.58680820
O          5.62163840       4.00291110       5.41324620
O          8.66384500       1.67001770       9.54132330
O          7.17647880       4.59440370      13.48708060
O          7.30912300       2.00671290      12.23870770
O          9.74154600       0.93709930      12.32375150
O         10.17319170       3.02651390       1.00056050
O          5.48824300       0.48270260      14.58139270
O          7.95570930       5.58983510      11.58225470
O          6.43110280       3.69778800      10.41791560
O          8.41705750       2.00561460      14.47251240
O          4.52981700       8.90438650       3.38819380
O          6.97105140       7.44737960       1.34847240
O          9.53772790       6.57939390       1.67653380
O          8.36624230       8.48177720       5.72626390
O          4.50927100       6.46768580       4.36573250
O          6.82711650       9.82893230       3.05920060
O          5.61788160       9.84216040       0.63387870
O          7.67792540       6.85497990       3.63836270
O          5.77982160       8.64181860       8.32303810
O          6.73557110       6.91533940       6.72437030
O          9.16891380       6.12815800       6.73208720
O          9.69147590       8.47955460       9.89294450
O          4.83208120       5.78605340      10.91341080
O          7.72437370      10.15116380       7.69528410
O          5.87183930       9.61704310       5.68856350
O          8.03402200       6.49693740       9.10173210
O          6.25461170      10.05570380      12.97105690
O          6.72005500       7.31072450      13.49140920
O          8.80893730       7.62474850      12.35236400
O          9.97860260       8.61719700      14.86681030
O          5.80887290       5.63587460      15.28664170
O          8.69427400      10.28319080      12.51989010
O          6.95398490       8.45979100      10.76643510
O          9.15066300       5.98081410      14.21410920
O          5.42998110      13.79587280       4.49889160
O          6.11747290      12.43971560       2.19694620
O          8.35098600      11.12696300       1.54197550
O          8.65725250      14.08335510       6.14364330
O          4.20654350      11.18680560       4.32580780
O          7.35489230      15.51217830       3.65120340
O          5.90497190      15.00435040       1.68862250
O          7.80020360      12.37355200       3.92201460
O          7.18755630      15.15550500       9.28496640
O          7.23837220      12.82716320       7.90102440
O          9.52191000      11.84367260       6.93378070
O         10.25837270      13.92445920       9.84853510
O          6.06711780      10.80641830      10.04321800
O          8.81568450       0.32762790       7.10284190
O          5.92491190      15.02309850       6.92147380
O          8.91549820      11.60235430       9.52125060
O          5.53769360      13.83650440      14.46133080
O          7.40044940      12.71628720      11.76871430
O         10.06174280      12.36171010      12.08830810
O          8.58882200      13.74619290       1.52459350
O          4.37467970      11.35237640      14.05035510
O          7.61046480      15.54278170      13.78593960
O          6.16271190      14.97058490      11.72629830
O          8.18933640      12.69231630      13.99609950
Si        10.53867710       4.19007220       4.62094880
Si         2.74154720       1.01773100       2.97143580
Si        10.47349890       4.35913140      10.48315800
Si         2.90089840       1.84279680       7.51317380
Si         1.25323880       3.96193900      14.83190300
Si         3.13009220       0.71225210      13.00863770
Si         9.80038540       9.20556200       5.37129080
Si         2.94041110       6.97952690       2.06585370
Si         0.51070140       9.35413650       9.75582980
Si         2.48819570       6.09158050       7.62562230
Si         0.32000470      10.04572880      14.93330030
Si         2.31337150       6.30795160      13.25846720
Si        10.19068190      14.70689510       5.84841260
Si         2.07970550      11.59502790       2.69561780
Si         0.59321600      15.27141650      10.08605570
Si         3.05217160      11.87832580       7.74059800
Si         9.85876890      14.66745500       0.98344350
Si         3.27850750      11.95016180      12.61184460
Si         4.87760820       4.89537250       4.23218370
Si         6.99829140       0.98869070       3.66797830
Si         4.94607200       4.31552020      10.24532390
Si         8.35130680       1.68639280       7.97696990
Si         6.00678110       4.21108050      14.57128380
Si         8.32728740       1.05101690      13.15567260
Si         4.54825060       9.66433360       4.82151850
Si         7.94864380       6.37002310       2.08438400
Si         5.83646060       9.20676210       9.85020760
Si         7.78988830       6.01684480       7.60273180
Si         5.30218140      10.02112200      14.29172750
Si         7.95529240       6.21652890      13.15501990
Si         5.06515300      14.99293660       5.58565990
Si         7.24321070      11.35104450       2.70405220
Si         5.79240740      15.13586120      10.14402750
Si         8.30539870      11.59741950       8.03295940
Si         4.83884710      14.84944890       0.48155440
Si         8.58086460      11.89631680      12.58622170
