   792
 Wannier centres, written by Wannier90 on20Jan2025 at 20:18:51 
X          3.66873817       5.46083303       6.27868803
X          4.72377978       0.48077889      12.03776955
X          4.64239242       3.33554356      13.67905278
X          1.50825800       7.68254242       1.04844212
X          7.31228747      12.78690885      11.52459518
X          0.64192203      12.52903122       1.87167106
X          5.93340806      12.49219056       2.01745477
X          5.98444663       5.09239100       2.86191597
X          9.64448918       4.07787274       8.89209763
X          2.00255115      12.86587267      11.43504903
X          3.26138607      14.02770254       1.27299928
X          9.38220934       6.01178751       6.61369690
X          5.70935817       8.83247713       8.13817357
X          8.81631687      10.16676813      12.70837568
X         10.04631090       0.14354621       4.78402549
X          6.48300584       6.94972832       6.67168713
X         10.61267041       6.10781038      10.91722992
X          2.10216119       1.54389148      11.66704453
X          8.22037917       2.09947663      14.62310705
X          8.53463841      10.96221912       1.46557190
X          1.91699303       9.63420539      14.24429814
X          9.73410197       6.71587339       1.79515649
X          4.56396897       6.68863518       4.48995053
X          9.01117962       7.73491788      12.39175492
X          2.27136118      15.28707856       9.33925409
X          7.40310595      15.02403627       9.36422010
X          9.77990183       8.51442529      15.02201378
X          4.50753875       4.25810739       8.47337390
X          1.47254489      10.17151140       3.46717005
X          4.35805833       8.68115824       3.33902937
X          9.48553800       8.51318078       9.75049760
X          1.45224169       2.37663870       2.77702587
X         10.62854966      11.39597253      14.62066198
X          7.11335000       2.01257256      12.07414930
X          5.51910822       5.77516871      15.31147726
X          5.92714908      15.25047006       1.80620297
X          7.46845952       6.98243658       3.74510082
X          9.49028202      10.70416551       4.40104162
X          3.43643239       0.29021268       6.83283156
X         10.08326286      13.79805406      10.06523579
X          3.24434628       1.36148723      14.56667954
X          6.81553807       7.48741193       1.13332001
X          3.30624018       5.23553331       1.87034952
X          3.56222417      11.52607254       9.37477078
X          9.99895558       0.99733183      12.33155333
X          4.23485879      11.86918883       6.61004548
X          6.59177923       1.86328201       7.71744428
X          7.01549214       9.73578350       2.86729203
X          1.39998552       4.90452965       8.36890880
X          1.97628503      15.25840844      13.83538211
X          8.97623359       5.22113624       4.66182843
X          5.73664005       0.57294804      14.65993745
X          7.21770483      12.89088095       7.63185521
X          4.15378374       8.70452639      10.14615369
X          0.53105837      15.23098602       1.71661644
X          1.58093311       7.16484534       6.44475069
X          3.71398941       5.93985521      14.23194012
X          5.47856888       0.67814439       4.67698422
X          1.28908638       2.92859637      13.33053184
X          9.56637138      12.12538325       6.79459026
X          5.83375095       3.93154999       5.25832330
X          4.80186311      12.66383601      11.83735129
X          4.20030916       8.56075920      14.02480899
X          4.10300455      11.26971415       4.08326644
X          0.85142582       4.63124068       2.73891313
X         -0.00108959       9.84992316       1.72311991
X         10.32436636      12.34228764      12.15372434
X          1.15885175       3.41911410      10.24631213
X          1.81547144      13.20444976       7.99422207
X          7.82228148       1.46493667       5.26158335
X          7.70146062       5.65055327      11.59071802
X         10.23378059       2.81297487       1.18194780
X          5.19379713       0.55856694       9.42790545
X          1.55421502       8.56830038       8.52437744
X          6.03459623      10.86745889      10.30995878
X          2.04400474      10.83863282       6.72778849
X          6.45587665      10.19438624      12.84859000
X          0.31290509       0.89049669       9.33076680
X          5.01858613       5.92453983      11.01163447
X          4.90734438      13.78577622       9.35055994
X          2.97207743      10.31159628      11.84353609
X          3.30186120      14.43291514       6.19022969
X          7.99433452       4.50305143       1.61767066
X          3.43840914      11.45684038       1.43927666
X          1.33697855       7.94622542      13.24743539
X          9.27053965       2.79592107       6.92339668
X          5.71084564      10.04400122       0.77514812
X          0.79958028      11.09997617       9.47148355
X          7.30845275      15.40523670      13.81482831
X          8.56975283       1.92083048       9.59597120
X          8.49297831      14.25448262       6.01761415
X          9.40971941       3.46635547      11.69847203
X          8.33371782      13.72149729       1.77603613
X          0.73823175      15.20198314      11.87357925
X          6.44122176       3.43870128      10.44949436
X          5.87408621       2.72117795       0.66199830
X          2.38822247       5.12884825      11.79694612
X          3.29745395       1.45970661       4.74791358
X          7.52586643      15.37955278       3.77704188
X          7.34135688       4.27179521       7.51364142
X          1.36368840       2.40700744       6.80721623
X          2.21603208       3.78101742       0.54469102
X          8.25074336       8.57849795       5.52990693
X          0.74742379       4.85573730       5.73470621
X          7.99141702      12.53025029      14.04495220
X          9.37918438       5.87357767      14.11817798
X          6.23450099      15.15390371      11.90533048
X         10.29594575       2.41568493       4.60379348
X          3.39610531       3.78902279       3.63043134
X          2.98457833      12.89487434      14.26483386
X          9.03790526       0.31409579       7.24281324
X          2.98126685       2.02044358       9.30723618
X          2.15932191      15.45163781       3.68418703
X          4.06233906       1.02037176       1.68392015
X          9.01976772      11.38903538       9.63458838
X          0.74584768       8.79597552      11.39282295
X         10.47401249       0.52137555      15.35706018
X          5.86650060      15.18623325       7.10195906
X          7.24415614       8.28337171      10.71464107
X          5.76138848       2.30987034       3.20140229
X          6.00238605       9.43540886       5.51694702
X          2.00731172       7.73418836       3.42853918
X          3.37025865       7.47658931      12.05971761
X          0.91506979       5.86289059      14.52225292
X          7.36396543       4.95826475      13.47890490
X          5.63250473      13.80810720       4.12144842
X          0.28719463      13.99953435      14.12529339
X          4.50037417       7.35092183       1.63757445
X          5.83650494      13.78164347      14.16348816
X          0.07805716       9.16554296       6.33091608
X          3.39458235       6.92933521       8.88256854
X          6.64267180       7.20223871      13.26986098
X          7.62811958      12.70559108       3.83091755
X          2.27752759      13.17584758       3.55673206
X          4.30319576      11.64088227      14.37639755
X          8.09734511       6.78666022       9.17004324
X          3.52931025       3.34514570      11.19319840
X         10.02182273       7.74612152       4.37946355
X          0.52601935      15.06577350       6.93277109
X          7.43356821       9.85061201       7.57026422
X          4.57994575       2.73926541       6.94597719
X          0.14204104      13.79971747       3.95511738
X          3.11789148       8.91737492       6.00948050
X          7.96612315       1.96966453       2.51715157
X          8.60318495      -0.03207029       7.07700851
X          4.59697809      11.45933656      14.01634526
X          5.64775216       0.03718268       4.79748598
X          4.60469239       7.84698179       1.51626363
X          1.09467205       5.42320738      14.21040600
X          6.36423871       7.29091446      13.77578829
X          6.85597855       4.64774511      13.46014916
X          3.42369420      14.48197662       5.61461893
X          5.62174930       3.94766672       5.83842813
X          7.94731790       5.14749271      11.57794148
X          8.10209930      12.37598056       3.89016967
X          8.11119758       8.51278983       6.06197678
X          1.77496903       4.81805295       7.99322108
X          4.93635281       8.80451675       3.13000705
X          8.05778906      13.02858221      13.83248278
X          0.30443910      11.29735792       9.63558144
X          8.31995585       6.46543932       9.42491493
X          4.34487412       2.42929880       6.33928908
X          7.81947627      10.15740581       7.40360304
X          5.70746318      11.12492415       9.99844591
X          8.70566404      13.69083416       6.01027042
X          1.51343297       7.29123562      13.40745767
X          4.06129271       3.56922076      10.76235446
X          2.01140029       4.90147366      12.03661321
X          2.85574195       5.07264912       2.13368121
X          9.76955803       2.78770498       7.16505745
X         10.38212153      13.88583585       4.88400932
X          3.11910146       6.82711349       9.28714466
X          4.37088888      11.51948586       4.48047051
X          2.90725845       7.16735577      12.32155140
X          7.57559764       2.22718788       2.29823816
X         10.67614787      14.15032340      15.11402906
X          5.30739130      14.15973656       4.67869644
X          2.95230068       0.19999629       6.79098693
X          5.28603233       0.76048608       9.88810945
X          7.19328244      14.94051647       8.85526318
X         10.11996148       8.42441543       4.40244832
X          9.48882087       3.05374923      11.26546519
X          5.38216739       2.82454587       0.74962736
X          9.08861405       1.71365796       9.77357100
X         10.14842749      11.29596233      14.74746999
X          1.64794737      15.39773732       3.61239238
X          6.13580219       1.99383700       3.49843762
X          8.84583763      11.80695253       9.70065087
X          7.22210466      12.72018194      12.05572177
X          0.59877479      14.76253663      11.79686526
X          7.30835910       4.88764258       7.58388171
X          8.76659875       7.50098634      11.88708685
X          2.50181618      12.52669473       3.45874682
X          1.21629588       8.78166800      11.33381486
X          2.46502804       1.33611748      12.12054586
X          6.06994547      14.71390092      11.96526486
X          2.42102868      12.59127752      11.89048762
X         10.02965108       8.56687495      14.61482577
X          8.72366074       1.89588751      14.85658880
X          1.87553597      10.57850376       7.11956141
X         10.63920367       0.62823365      10.14974954
X          5.59792893      14.14884938      14.74898882
X          5.88820563       8.81514710       8.69551527
X          9.54009713       4.88452906       4.55450459
X          1.17318716       3.35222339      13.13606504
X          3.17551676       1.57506252       9.32930516
X          7.55341103       1.76437335      12.48345082
X          3.92035083       4.16550065       3.98252430
X          0.62149869       3.15153681      10.42482518
X          3.16885378       8.78164374       5.53035738
X          3.71691171       6.40050522      14.49894830
X          4.58098182       6.14107438      10.68836739
X         10.06687842       4.17363429       9.33709040
X          2.14938304       7.20311600       3.52843085
X          6.34543007      12.10901617       2.34870549
X          8.90943031      14.02117883       1.48132665
X          2.93543975      10.06933549      12.32627633
X          7.31576817      15.29749407       3.30792846
X          9.66203522      10.32103476       4.88201656
X          1.79866512      14.96853030       9.44791995
X          9.12038729       6.55714023       1.73448448
X          8.55061181      10.68588738      12.57826489
X          5.28047784       9.82333653       0.42240430
X          3.62625736       1.80780528       4.50673942
X          2.84293016      12.62429695      13.59873679
X          2.93035456      11.52791837       1.81698926
X          8.84544419       6.00853377       6.96246623
X          5.63758875      14.85466714       1.39265883
X          6.80948963      10.24116930       2.98806356
X         10.05145375       0.39403909      15.24030758
X          3.50817416       1.05213271       1.94677424
X          3.19404815       5.68258052       6.70978714
X          5.74179302       5.95677920      14.96655874
X          1.87985308       2.45202200       7.12232249
X          7.63157853      15.93184688      13.61405391
X          4.68360408      13.77135784       9.76578204
X          6.21594778       9.79732843      12.78451190
X          0.35108064       4.65933725       5.30757567
X          6.15392476      14.73752800       7.10221418
X          9.92190253       2.66197009       0.81907944
X          4.77206584       3.07442155      14.27921099
X          0.98378850      14.93940207       6.75096026
X          4.05187385      11.70453964       9.32364354
X          4.72327488       8.90259361      10.25044244
X          1.10528774      12.19200904       2.20878816
X          5.58700500       4.83729087       3.29211293
X          0.03873873       9.74947566       1.08800539
X          6.73571577       2.16896534       7.35551022
X          4.92967666       4.47700392       8.51819596
X          1.78092165       7.64671629       6.69010614
X          3.00229244       1.76637755      14.47812058
X         10.05722867       8.65182040      10.00474422
X          1.97820898      13.19999572       7.53741311
X          7.09672667       7.08776754       1.54337710
X          0.11477486      14.91515557       1.35625232
X          7.91085479       6.65450345       4.04619201
X          8.85105365       6.12501027      13.96390985
X         10.07386853      15.79296137       5.34160795
X          7.66398059       1.39489702       4.64641024
X         10.36531808       5.56812635      10.93559824
X          3.42977323      13.77854180       0.71359793
X          1.94321740       7.40329934       1.45056598
X          2.24716190      15.69583076      13.53568682
X          6.04941790       9.32844029       6.06190617
X          1.87598882       1.87885486       2.74533858
X          5.41010345       0.13493169      14.81898245
X          6.69126493       3.83068703      10.37737046
X          0.58536247       9.32786354       6.25801277
X          9.71011666      12.15467512      12.19306855
X          9.21569454      11.80589074       7.21027080
X          9.92058109       2.38664222       4.91144590
X          4.21483279       0.60075412      11.68707926
X          6.92246087       6.72527047       7.04471098
X          1.28103069       8.98400387       8.87748120
X          1.58930944       9.81508274       3.06519325
X          8.21616504      11.27758116       1.27256227
X         10.53158057      14.19357643      10.01816915
X          1.80863135       3.42163712       0.50452298
X          9.37431818       1.01356872      12.51862280
X          4.09495378       6.51279524       4.65997819
X          4.79813878      12.19123006      11.75203506
X          6.74684715       8.72464105      10.52466072
X          4.47165635      12.32251876       6.60733895
X          1.89614669      10.10984587      14.15316744
X          0.63052855       4.61131751       3.28410142
X          7.44683757      13.27653025       7.85643864
X          7.49159874       4.58145529       1.67685414
X          4.71349602       8.38886137      14.02536833
X          1.20055252       4.69099285       7.81813301
X         10.22286326       8.16366391      14.94939931
X          7.73505376      12.48999174      11.93568856
X          8.60944699       0.63560691       7.31701264
X          5.80074164       5.28159048      15.07278504
X          6.23681257      10.94386897       9.89012534
X          9.04950296      14.25940282       6.14519488
X          8.73537535       8.68938029       5.74259896
X          9.25562140      11.91520263       6.46812187
X          8.62631760       7.31247142      12.54362557
X          0.01748541      13.72075999       4.55839292
X          2.01507440      13.19672266      12.04105480
X          5.11151733       3.15291054      13.90470569
X          4.63194464       9.05381328       3.76475867
X          2.19903286      10.33315341       6.92668808
X          9.74037356       1.26745181      11.89951576
X          5.73814093       8.38240729       8.28905692
X          4.07897301       3.34996138      11.27052715
X          3.89902176       3.46303144       4.17345032
X          5.13378825      14.17688112       9.76830395
X          3.05226347       1.87312387       8.70333188
X          0.36820546      14.75853256       6.48561129
X          1.75996601      15.46413936       9.28443571
X          7.93392823       1.82071399       5.00540670
X          7.94416489      12.31310902       4.31968992
X          9.47368902       2.29783014       6.67836212
X          4.83756894       5.45175051      10.65982345
X          3.90781233      14.59521298       5.85215105
X          4.17491008       0.61304399      12.38234479
X          4.30050102      10.82401387       4.50838070
X         10.44518649      13.48890729       9.98259751
X          6.80738386      15.11145002       9.44560465
X          6.13950895       4.48729512       2.94520377
X         10.12656891       0.44342729       5.15502060
X          0.80708554      12.73130034       2.40568256
X          8.54745362      13.68762850       1.19036129
X          3.97416856       7.51161219       1.55873148
X          6.14713895      12.71287198       2.52505923
X          8.91764739       6.21634500       6.27442407
X          9.89633152       2.42519456       4.40527121
X          1.33133588       3.40695259      13.73642812
X          0.89609114       9.09746399      10.87874461
X          0.75462748      15.05894941      11.26564931
X          9.37659005      11.80872390       9.63218738
X          4.78427248       4.26638654       9.04306149
X          5.49212428       0.24180993       4.31884795
X         10.10050021      12.25201014      11.56452983
X         10.52950255       5.78795017      10.48094516
X          4.13718743       2.74495205       6.64776145
X          2.70100168       1.45884913      11.47504174
X          3.24337315       5.42262542       2.32453593
X          2.54649692       7.37489319       3.22858788
X          7.04496079       7.04888454      13.56558074
X          3.38050930       8.34901082       5.57760866
X          8.38642248      12.47756988      13.67809758
X          9.53511051      15.80581840       0.79405034
X          4.48437456      10.99024441      14.17891225
X          3.76258816      14.33935075       0.94381345
X          4.55960554       8.38016307      14.42003750
X          7.56058032      12.55790273       7.95373491
X          8.72138394       1.60924168       9.13746200
X          7.99113814       6.98152358       3.74414587
X          7.16393790      15.88528458       3.66689079
X          6.35569877      15.05922993       6.90651922
X          4.29651289       8.28013111      10.38274732
X          0.48261618      10.59621400       9.62985861
X          9.70957025      11.01347358       4.79171796
X          5.79476713       3.23641941       0.46224583
X          3.03691043      11.33535300       1.24220549
X          2.11010309       7.16614138       6.29690851
X          2.13099237       3.64058323       1.12629789
X          1.97032715      15.91010265       3.37784650
X          6.76661085       9.71608509       3.27417892
X          3.31611380       6.33550228      13.97145929
X         10.51222681       8.09756370       4.45499842
X          9.11680261       5.08636605       4.15051613
X          3.92547948       1.41153448       1.96172650
X          8.12851835      11.23627416       1.87773375
X          6.61409270       9.71193172      13.00905044
X          1.23987172       5.26076455      14.68558266
X          1.39449986       9.87178117      14.40993488
X          7.04854181       6.86506804       6.45310261
X          8.40509968       1.66888459      14.22375304
X          8.13690967       6.37203135       8.75558984
X         10.56402403      10.89060309      14.98326729
X          0.44176548       4.45097270       6.01076661
X          9.58552623       6.70985237       1.21460946
X          7.90124669       9.99458579       7.82081609
X          5.00830299      13.50928752       4.57395832
X          2.20974859      13.53425256       7.78830272
X          9.57392102       3.73226580      11.20344528
X          3.59459604       1.70720815      14.53138080
X          6.67405579       3.72719359      10.88114448
X          7.15902167       4.40368177      13.79240502
X          5.22329455       0.87162667      14.81447743
X          0.90956980       7.50940864      13.73704743
X          6.51522679      14.70215074      11.92729462
X          2.10624722      14.97018069      13.40012787
X         -0.01033080       9.39349386       1.60538780
X          7.31204602       2.43047208      12.34990778
X          0.96783772       5.03776999       2.98852370
X          2.32721561      12.75472245       3.87891655
X          7.42093525      13.12727009      12.10150517
X          7.20715685       2.00911347       7.74901032
X          5.32453294       3.65920350       5.25040274
X          3.05193593      10.77787114      12.26914193
X          1.54498265       8.97094538       8.16995272
X          1.24705190       2.84396963       7.17339890
X          2.27070812       5.41964464      12.37964071
X         10.22191515      13.84916335       9.60568045
X          0.30466519      14.87645682       1.98321900
X          4.04087964      12.30708966       6.23040614
X          4.42725040       7.34403494       0.99289906
X          0.16792669       9.59512009       6.38949992
X          3.07120864       0.69372263       7.12809831
X          3.18327601       1.27113371       4.13603693
X          9.49852339       6.36406166      14.37203839
X          8.04437581       5.69583497      11.98521911
X          1.92000891       2.55154908       2.57062913
X          5.99576351       9.82340801       5.78340184
X          9.95521994       3.15674351       1.04393639
X          6.19476029      14.79429707       1.73653831
X          9.98705196       3.71705068       9.01684533
X          3.54873164       5.99752793       6.41375566
X          2.46693333      12.66799929      13.97754398
X          1.88377386       7.91920757       1.34370954
X          4.62939609      12.38898917      11.32538865
X          5.57950789       9.48484131       1.00583991
X          1.96726307      10.06413581       3.51103472
X          8.48203443      14.13733453       6.54874922
X          5.27286723      13.91997950      14.38664319
X         10.44605410      13.50525762      15.04591724
X          6.12259712       2.67606671       3.27716740
X          1.10739597      12.86457039       2.14654717
X          9.50795479       8.25624278      10.22177097
X          5.35530579       0.48083974      14.35529371
X          9.64119220      11.66475565       6.77271678
X          1.52950707       5.27224282       7.94486236
X          3.50715877       3.87461058       4.21219710
X          6.96630866       4.34957240       7.80370783
X          2.31236911      12.82347376       7.85678512
X          7.59772475       1.56601581       2.55761342
X          2.98344305       5.73484024       1.94176205
X          2.50470586      15.27243812      13.83852842
X          7.81156424      15.44586020      13.93075423
X          0.36152044       1.02365506       9.81413312
X          3.63110998      13.99378283       5.70502009
X          7.21945395      15.38271130       9.11157974
X          7.15143024       7.65365402       1.46174548
X         10.49709225       0.28590267       4.72866781
X          7.04462079      15.17113021       3.64044683
X          8.48085378       8.06382089       5.60026022
X          0.63285396      11.08849412       9.91316798
X          7.64601281       4.47412440       2.05047642
X          1.20741155       3.47027829      10.83348115
X          4.27349160       6.49095592       4.16339068
X          1.87494572       6.98551064       6.92285976
X          3.54661184      11.62859875       8.79949597
X          5.57494581       2.39198982       3.79915080
X          6.09652522      14.94480435      11.32262925
X          3.18382218       1.40367560      13.99882787
X          9.24928347       5.55564310       4.52607260
X          5.04743520       3.66753445      14.04378904
X          1.52559720       5.71204444      14.27484780
X          6.04097029      10.05776318      13.31987436
X          4.20191388       8.77628934      10.59107712
X          8.80832153      13.35214112       1.37328064
X          3.11369081       7.37939748      11.64874952
X          8.50700930      12.70381284      14.36796399
X          4.13182656      11.40597404      13.75392559
X          3.38847838       6.51533114       9.03372764
X          1.82968888       8.91909225       8.62649808
X          9.69164397       0.84040659      12.01171295
X          7.09150664       8.70588671      11.22802364
X          6.08438583       3.91748639      10.44886739
X          4.86946643       0.54840551       9.91206589
X          2.40485288       1.95678944      11.84613395
X          5.05920447      13.45238718       9.77765997
X          8.05640917       1.77262238       2.00377015
X          8.62905917       1.46201011       9.69525180
X          4.55948898       5.80551905      11.03180313
X          6.85514477       7.38835803       6.83892308
X          5.78490054       9.63864020       0.46818327
X          7.80911051       6.42844428       9.22007897
X          2.82860952      12.89106013       4.00857690
X          1.37810060       2.27655470       7.29025248
X          8.69848766      10.21199458      12.24851424
X          4.63916016       6.06516457       4.42004986
X          9.19283510       2.41584327       7.33719415
X          8.33732247       1.46827437       5.07162181
X          1.04328428       7.41620369      13.19421959
X          6.50580720       9.62896699       2.77668106
X          0.53209666      15.28758181       6.46472318
X          1.05663792      14.75926095      11.88390975
X          6.43957498      12.72415180       2.22003020
X          8.19759480       5.81047861      11.32139479
X          5.93837532      14.69954214       2.06022011
X          3.99006943       2.84003852      10.89534482
X          5.54044728      13.70048394       4.69548731
X          2.57047368      10.24916083      12.20240464
X          5.96126724       3.06831623       1.16715210
X          1.89788556      15.20955911       3.23825753
X          7.63078800      10.48482121       7.80797103
X          9.72284555       8.09011745       9.89903866
X          1.71633674       9.68861358      13.76735016
X          9.95225441      12.56848036      11.94604723
X          9.61794193       6.33751418       1.46237590
X          9.62822836       0.42529602       0.60950046
X          2.73840015      16.02252420       7.43610081
X          1.64831393       3.28333914      13.05440268
X          4.61997435       9.02244325      14.17255420
X          1.13574301       9.13986471      11.58832335
X          8.88748913       3.50784478      11.43804909
X         10.30991122      11.57612228      15.09305068
X          2.86080122       7.87406438      12.18412926
X          5.04675837       4.00972097       8.38768062
X          8.62794638       2.15092346      14.38803803
X          2.37936626      10.98554021       7.21670816
X         10.17412429       3.01143839       4.53761822
X          3.27197359       5.99584425       6.05011318
X          2.43126027      13.17159107      13.71921232
X          8.46352280       7.93996916      12.36532283
X          7.56101262      15.19379351      13.44205258
X          9.10797035       6.42663438       6.69396965
X          6.86837814       7.70494873      13.35802762
X         10.25845118       8.88425467      15.03347762
X          5.56395053       5.50608942       0.33748406
X          1.99401279      15.11313624       8.80148258
X          3.96911340       2.33308871       6.97579066
X          5.76867198       4.62142024       2.73476334
X          0.40906889       9.49801953       1.67238962
X         10.39039132      13.89043501      14.73702182
X          1.28687440       4.49878315       2.91589030
X          3.97623779      12.23397309       6.95612482
X          3.70543473      13.68141757       1.00261811
X          4.07998119       6.47224068      14.17913595
X          7.05923344      12.91555204       8.08154243
X          3.44680991       1.92199109       9.25582880
X          8.58637481      11.53542709       1.34718928
X          5.49741120       0.13627729       9.77788959
X          6.57672594       2.46849333       7.69861855
X          3.96218538      11.44571076       4.58470546
X          2.94767497       6.59695706       8.62299252
X          6.65534056       7.68000605       1.66132767
X          8.84183123      11.64546908       9.12728188
X          7.26703539       4.35761230      13.10488944
X          3.82158857      11.22032007       9.12282198
X          3.80636833       1.40515116       1.42165816
X          9.29345175      10.94175739       4.88224886
X          6.78008426       8.36332531      10.97049191
X         10.48351488       3.12299929       0.73857552
X         10.21979143       4.00377843       8.64175493
X          5.47777982       9.57801053       5.63390145
X          2.39621273       4.73657522      12.16757738
X          5.92804273      10.43105017       9.94248057
X          7.86850738       5.15123138       1.80664205
X          7.66648299      12.03034206       3.71003247
X          0.47477770       0.37494146       9.66014205
X          0.76021806       4.40634443       5.59397830
X          4.54972346       9.11832087       3.19962313
X          9.12719260       5.96540441      14.50549654
X          5.41286154       4.31281750       5.25233919
X          1.50273629       7.92399628       1.67282379
X          4.40316806       0.93839182      11.85739737
X          6.17895501       8.67062923       8.01483565
X          3.65693648       9.08069001       5.49836009
X          8.93067402       0.54062405       6.72713519
X          6.83007081       4.34949179       7.38208980
X          8.29395170       9.95574719      12.54630057
X          4.27934556      12.34396144      12.01109411
X          3.21271892      11.82624702       1.18629433
X          0.66077654      14.69482630       1.81797339
X          0.73316538       3.83231892      10.34777336
X          1.90141936      12.81624970      11.97199631
X          2.43895878       7.40621452       3.93903374
X         10.03972197       6.11766750      10.68840224
X          7.75603689       6.62560647       3.29145641
X          5.77222288      14.92481100       6.55234030
X          7.55757034       2.31708953      12.02494378
X         10.19337113      13.21120368       4.80251831
X         -0.02765244       9.47299844       5.84292577
X         10.52747372       8.10563537       3.92908547
X          5.33194176      13.51787448      14.68026931
X          1.81219486      10.53813571       3.14950842
X          3.73326241       1.41128604       4.55581367
X          6.00045533       0.43060370       4.38469980
X          1.90778987       2.42721577       2.99320468
X          2.41186170       3.30359634       0.67517047
Fe         2.29223070       3.87836820       2.39490160
Fe         4.58737440       2.43344010       4.90131070
Fe         0.32265660       3.89438490       7.20472210
Fe         3.96785610       1.31277870      10.52884030
Fe         2.19227850       3.41181580      11.88730830
Fe         4.62236300       2.05298750      15.19233110
Fe         0.96102140       8.67681500       2.59477270
Fe         3.05558790       6.99979510       5.22802130
Fe         1.75301780       9.11870560       6.90306070
Fe         3.76748400       7.16435350      10.52482710
Fe         1.98182060       9.11704290      12.64510760
Fe         5.11295880       7.10836660      14.62143600
Fe         1.20284020      14.06695470       2.86151560
Fe         3.86600870      12.73890010       5.05642230
Fe         2.16022160      14.83672690       7.49804980
Fe         4.97118980      12.19613790      10.12739780
Fe         1.44477690      13.94406730      12.89157840
Fe         4.09711900      12.76959000      15.25482690
Fe         6.77154510       3.49279600       2.33685720
Fe         9.44913240       1.43462110       5.56345100
Fe         5.79390600       3.51428880       7.41464400
Fe        10.03413300       1.72149330      10.75812880
Fe         7.58531750       3.70592810      11.75769580
Fe         9.01167350       1.64301450       0.87237360
Fe         5.77774440       8.66829360       2.11502130
Fe         8.71055320       6.66627560       5.06179130
Fe         6.89278910       8.75411660       6.94453850
Fe         8.91443040       7.01162950      10.56570970
Fe         7.50372930       8.93363500      12.48929050
Fe        10.50803300       6.91088280      15.03711810
Fe         6.70348680      14.00584990       2.93494720
Fe         9.10092590      12.25645300       5.26002090
Fe         7.55696230      14.58737040       7.61722850
Fe        10.38313700      12.21477450      10.30740110
Fe         6.97254980      14.02414430      12.97780680
Fe         9.46796780      12.53135330      15.48405520
O          0.84761380       4.79936000       2.97172130
O          1.67251860       2.23201250       2.78524950
O          3.85815500       1.17561950       1.81790360
O          3.60769780       3.86102650       3.98326290
O         10.34683860       0.10183000       4.82372720
O          3.16448050       5.39493740       2.02643590
O          2.18737380       3.50506160       0.61605810
O          3.31989920       1.35969070       4.49625890
O          9.87036110       4.01543130       9.00409480
O          1.47803210       2.41592030       7.06145280
O          4.23207320       2.55966770       6.77204850
O          3.94074860       3.30134500      11.04907500
O          0.34740630       0.74204890       9.54592330
O          1.50802780       4.92688200       8.10853870
O          0.64433030       4.66928920       5.59416930
O          3.09514880       1.90876400       9.10333010
O          1.26868180       3.18764250      13.38826640
O          2.34185140       1.52699810      11.76221620
O          4.49066000       0.59004370      12.08700170
O          4.84686730       3.34084390      13.85035040
O         10.26831730       0.36538230      15.39577980
O          2.26973130       5.15901140      12.06316650
O          0.96593900       3.46072530      10.38558890
O          3.12473420       1.55381090      14.39319190
O         10.27596920       8.05861000       4.29567480
O          1.71141660       7.69340620       1.23559440
O          4.37496140       7.51444450       1.44053230
O          3.35296200       8.86422250       5.67409370
O          9.20106680       5.08963110       4.40477150
O          1.74955010      10.18655440       3.39309970
O          0.02738020       9.71407330       1.49921870
O          2.25430470       7.43815470       3.53046630
O          1.58857300       8.81282120       8.65770770
O          1.74245930       7.22444630       6.60524290
O          3.49579720       5.66549480       6.40343320
O          4.32709040       8.82659250      10.34634310
O         10.49900360       5.91474180      10.79153880
O          2.10920870      10.79946120       6.97365560
O          0.10179030       9.41112450       6.21479050
O          3.20996580       6.71538900       8.89598140
O          1.78788360       9.88537380      14.24961420
O          1.18795730       7.54883210      13.36709640
O          3.06997390       7.48092160      12.12636780
O          4.42028380       8.66325450      14.10793490
O          1.18524480       5.56882180      14.44278510
O          2.97113550      10.42120330      12.07115140
O          0.91973120       8.90669600      11.23753000
O          3.61857000       6.19171730      14.22920900
O         -0.11371190      13.77037310       4.32672570
O          0.82422760      12.48542700       2.06547070
O          3.15664950      11.41868400       1.48719770
O          3.50958530      14.42766750       5.85127270
O          9.57355930      10.66008350       4.64695260
O          1.95524310      15.53374030       3.54811010
O          0.37953230      15.03259900       1.65099140
O          2.47984200      12.84990020       3.73627760
O          2.01391490      15.22748340       9.30032620
O          2.01083310      13.10703450       7.82815930
O          4.28008930      12.14369080       6.69973220
O          4.89155710      13.88365120       9.59442260
O          0.63021140      10.97291630       9.63956920
O          3.20273060       0.36139910       6.92486000
O          0.53116530      15.03302630       6.65782370
O          3.67027740      11.43079380       9.14558800
O         10.65241310      13.85736300      14.80751640
O          2.09905780      12.79347120      11.67735600
O          4.66065060      12.44027110      11.86109140
O          3.47115660      14.07075150       1.08885240
O         10.47548850      11.24630240      14.77565910
O          2.23782520      15.33626310      13.75128710
O          0.72777330      15.03039930      11.67795750
O          2.63000690      12.83177700      13.91113460
O          5.83220370       4.88017310       2.94226230
O          5.86385470       2.30930220       3.42931920
O          7.82241230       1.85207190       2.36465390
O         10.12735040       2.61049750       4.48865580
O          5.62817730       0.36030640       4.53427520
O          7.86114970       4.73737730       1.70519430
O          5.75945080       2.91848960       0.75435720
O          7.79320850       1.57663090       4.98934460
O          4.71624070       4.32429120       8.62831760
O          6.79219030       2.00742140       7.63129230
O          9.41214320       2.63692130       7.04267620
O          9.39022240       3.44638870      11.44076750
O          5.29434020       0.49054050       9.65758410
O          7.22831910       4.48911240       7.58680820
O          5.62163840       4.00291110       5.41324620
O          8.66384500       1.67001770       9.54132330
O          7.17647880       4.59440370      13.48708060
O          7.30912300       2.00671290      12.23870770
O          9.74154600       0.93709930      12.32375150
O         10.17319170       3.02651390       1.00056050
O          5.48824300       0.48270260      14.58139270
O          7.95570930       5.58983510      11.58225470
O          6.43110280       3.69778800      10.41791560
O          8.41705750       2.00561460      14.47251240
O          4.52981700       8.90438650       3.38819380
O          6.97105140       7.44737960       1.34847240
O          9.53772790       6.57939390       1.67653380
O          8.36624230       8.48177720       5.72626390
O          4.50927100       6.46768580       4.36573250
O          6.82711650       9.82893230       3.05920060
O          5.61788160       9.84216040       0.63387870
O          7.67792540       6.85497990       3.63836270
O          5.77982160       8.64181860       8.32303810
O          6.73557110       6.91533940       6.72437030
O          9.16891380       6.12815800       6.73208720
O          9.69147590       8.47955460       9.89294450
O          4.83208120       5.78605340      10.91341080
O          7.72437370      10.15116380       7.69528410
O          5.87183930       9.61704310       5.68856350
O          8.03402200       6.49693740       9.10173210
O          6.25461170      10.05570380      12.97105690
O          6.72005500       7.31072450      13.49140920
O          8.80893730       7.62474850      12.35236400
O          9.97860260       8.61719700      14.86681030
O          5.80887290       5.63587460      15.28664170
O          8.69427400      10.28319080      12.51989010
O          6.95398490       8.45979100      10.76643510
O          9.15066300       5.98081410      14.21410920
O          5.42998110      13.79587280       4.49889160
O          6.11747290      12.43971560       2.19694620
O          8.35098600      11.12696300       1.54197550
O          8.65725250      14.08335510       6.14364330
O          4.20654350      11.18680560       4.32580780
O          7.35489230      15.51217830       3.65120340
O          5.90497190      15.00435040       1.68862250
O          7.80020360      12.37355200       3.92201460
O          7.18755630      15.15550500       9.28496640
O          7.23837220      12.82716320       7.90102440
O          9.52191000      11.84367260       6.93378070
O         10.25837270      13.92445920       9.84853510
O          6.06711780      10.80641830      10.04321800
O          8.81568450       0.32762790       7.10284190
O          5.92491190      15.02309850       6.92147380
O          8.91549820      11.60235430       9.52125060
O          5.53769360      13.83650440      14.46133080
O          7.40044940      12.71628720      11.76871430
O         10.06174280      12.36171010      12.08830810
O          8.58882200      13.74619290       1.52459350
O          4.37467970      11.35237640      14.05035510
O          7.61046480      15.54278170      13.78593960
O          6.16271190      14.97058490      11.72629830
O          8.18933640      12.69231630      13.99609950
Si        10.53867710       4.19007220       4.62094880
Si         2.74154720       1.01773100       2.97143580
Si        10.47349890       4.35913140      10.48315800
Si         2.90089840       1.84279680       7.51317380
Si         1.25323880       3.96193900      14.83190300
Si         3.13009220       0.71225210      13.00863770
Si         9.80038540       9.20556200       5.37129080
Si         2.94041110       6.97952690       2.06585370
Si         0.51070140       9.35413650       9.75582980
Si         2.48819570       6.09158050       7.62562230
Si         0.32000470      10.04572880      14.93330030
Si         2.31337150       6.30795160      13.25846720
Si        10.19068190      14.70689510       5.84841260
Si         2.07970550      11.59502790       2.69561780
Si         0.59321600      15.27141650      10.08605570
Si         3.05217160      11.87832580       7.74059800
Si         9.85876890      14.66745500       0.98344350
Si         3.27850750      11.95016180      12.61184460
Si         4.87760820       4.89537250       4.23218370
Si         6.99829140       0.98869070       3.66797830
Si         4.94607200       4.31552020      10.24532390
Si         8.35130680       1.68639280       7.97696990
Si         6.00678110       4.21108050      14.57128380
Si         8.32728740       1.05101690      13.15567260
Si         4.54825060       9.66433360       4.82151850
Si         7.94864380       6.37002310       2.08438400
Si         5.83646060       9.20676210       9.85020760
Si         7.78988830       6.01684480       7.60273180
Si         5.30218140      10.02112200      14.29172750
Si         7.95529240       6.21652890      13.15501990
Si         5.06515300      14.99293660       5.58565990
Si         7.24321070      11.35104450       2.70405220
Si         5.79240740      15.13586120      10.14402750
Si         8.30539870      11.59741950       8.03295940
Si         4.83884710      14.84944890       0.48155440
Si         8.58086460      11.89631680      12.58622170
