Fe  O Si                                
   1.0000000000000000     
    10.8870777527271105   -0.1355282380014362    0.6538260589175766
    -0.2131152725974987   16.2868032594981429   -0.0113307147096482
     0.7750835243810670   -0.0147381648135614   14.6131761250653227
   Fe   O    Si
    36   144    36
Direct
  0.1054708628729627  0.1978291466086093  0.1618313268252012
  0.4376910982517498  0.0847198264486116  0.3068328947364578
  0.0848446418993413  0.2050857830939168  0.5234189166630966
  0.4087236253005780  0.1187038130449496  0.6913672177280923
  0.0612480781861799  0.2540860979829516  0.8419770821956784
  0.3574361887565750  0.1446537899785202  0.0128989514949767
  0.1820093466965924  0.5588363852617478  0.1167776471821412
  0.3584167335293978  0.3918689490776948  0.3114225981718167
  0.1260419379720856  0.5296141710858253  0.5232480976199826
  0.3931656680066715  0.4588991505875458  0.6380854364200854
  0.0921518013057620  0.6070251062833624  0.8426488505607301
  0.3715979887644784  0.4432685528620336  0.9767102109410333
  0.1319063080688087  0.8743090533016283  0.1038828852651846
  0.3918112132612586  0.7235533432776043  0.3148620506628174
  0.2184995925259008  0.8815806467409615  0.4914357733761474
  0.4015436303822078  0.7843239790863900  0.6367489474214808
  0.1838517828776235  0.9234850923275010  0.7932286194254646
  0.5224023134804737  0.7619576050485124  0.9457433550151989
  0.6025075490860596  0.2042454993652167  0.1543763901997699
  0.8933626109309530  0.1003028954619832  0.2732415605181764
  0.5654635689145550  0.1383704785132278  0.4967514237987140
  0.8296522229553353  0.1036641875877005  0.6448590235827730
  0.6538872608212315  0.2312181948573760  0.8045478797123384
  0.8330575241972206  0.1449209527653399  0.9582001614217345
  0.7079538444067127  0.5497579967708806  0.1241230162478940
  0.8689863943372843  0.4378724562137506  0.3373502263649504
  0.6573245730103869  0.5184319760722884  0.4753990659786507
  0.8256897526521103  0.5130298268930773  0.6624203291930708
  0.6889751178385702  0.6719703957167662  0.7904152235614087
  0.8987349737631202  0.4651789718006173  0.9888659196995782
  0.5652392323870019  0.8571825966783414  0.1084382145247437
  0.9318688352282787  0.7470135717528029  0.2904255607002968
  0.6700310500311921  0.8578242195079153  0.4828927313160028
  0.9693580366942302  0.7852868691740206  0.5045469511260650
  0.7075747158346496  0.9445155012211698  0.9444701910864589
  0.8626614785165910  0.7667192392300117  0.9279464944179671
  0.1569193258295831  0.2371781058039845  0.2666275336622328
  0.0646452646758081  0.0942009286447104  0.2101278949802787
  0.2497474691348730  0.1731755008660552  0.1139461071172184
  0.4458563091202220  0.1949465864305331  0.2916146215910974
  0.0638361403592230  0.9799387072474653  0.3186610492103149
  0.1047272145656789  0.3085214636088483  0.1181488952108077
  0.0135895334515498  0.1829670912890559  0.0710917067551855
  0.2727732915799603  0.0832474296063901  0.2956973507227088
  0.9315524862878913  0.1889766227018442  0.5984025269878587
  0.1647527966011782  0.1129641008494737  0.4816718192260859
  0.4122191790620452  0.1077160463526861  0.4482037551690696
  0.5061629457638119  0.1968639702504408  0.6027517013867897
  0.9445893679695209  0.0311803475525899  0.6057943980206734
  0.1708273368717134  0.2940494788195984  0.5683769991921660
  0.0217980753665846  0.2568362157929196  0.4287853675811200
  0.2879768389663414  0.1194392168997892  0.6184731718694181
  0.1224168159130436  0.2740110511288181  0.9486091413483670
  0.0867209648039472  0.1421548395930973  0.8469738639334184
  0.3175254986982221  0.1737923519183462  0.7785381470358759
  0.3744337118334538  0.2347166713698818  0.9418045807101896
  0.8757007964378797  0.0336606414181150  0.9623292858073587
  0.0951849638812839  0.3583305250571774  0.8049823292386009
  0.9914105177089535  0.2362831545092316  0.7409547528638910
  0.2597159235822066  0.0932449034555496  0.9443329071997164
  0.1992934940721187  0.5660349865792287  0.2374336121022903
  0.0872513380342214  0.4649093422882504  0.1305694006065493
  0.3126840017321331  0.4901979757893791  0.0724884483220953
  0.4024769023702487  0.4972538991748754  0.3229569729061216
  0.0227324587892102  0.3650368241838969  0.2839031081076804
  0.2952334561946646  0.6364754024801837  0.0836254390830652
  0.0542363644487494  0.6260753926546541  0.0975489941466787
  0.2584629086189042  0.3933071074155226  0.2224681507988573
  0.9745329384599614  0.5651387370303638  0.5998599015172079
  0.0729618403177731  0.4298255140211947  0.4913096327830752
  0.2702446841817686  0.3467874131853779  0.4089859463942348
  0.3645623522796279  0.5590732445236025  0.6869806919175027
  0.8962251224226915  0.3408054556123940  0.6066674472060388
  0.1974752730771295  0.6222058012633136  0.5661144877896723
  0.1084773835241271  0.5740167824244261  0.4128513910504533
  0.2600235068495275  0.4568385351335236  0.5540583896117307
  0.0342006404499426  0.5483927494803704  0.9503100583974430
  0.1480222568078760  0.5170909516254153  0.7878747003910538
  0.3182969474451464  0.4085944190770563  0.7376864910205312
  0.4817709062031466  0.4980029447693864  0.9049106723975242
  0.9942966036075178  0.3809626297087649  0.9866666178304491
  0.2215298875900656  0.6690858104946210  0.8827050021534332
  0.0703735177359658  0.6579136599275976  0.7380824399220058
  0.2474664027374324  0.4277681440749960  0.9141628747906940
  0.0605767652775002  0.8390862009392251  0.2250370434867866
  0.1925012161141092  0.7762865338776826  0.0798842209549013
  0.4487386658091536  0.7592278604735055  0.0695183474885977
  0.4203543365265429  0.8206697213514681  0.3668569055493497
  0.0526735336058839  0.6783411860004105  0.2851059833451778
  0.2206907519710937  0.9744086014324653  0.1724147403035211
  0.0094935732452198  0.9354361608145143  0.0700948387545031
  0.3085647837248695  0.7527154953852349  0.2232760064261405
  0.0420331422451619  0.8912762891302936  0.5374981143020744
  0.1053455601400676  0.7355346774137217  0.4574709394211015
  0.3287022133368674  0.6707924804109131  0.4155522517799358
  0.3446474026846852  0.8853256553725022  0.6931230749705387
  0.9709113010198772  0.7353720758243075  0.6113369601580524
  0.2866197346387050  0.9780450481706920  0.5202624639790329
  0.2022410540096122  0.8696596821695419  0.3688035563352372
  0.2761529266396115  0.7834776060015731  0.5497683997201470
  0.0753541790572217  0.9580501097769558  0.8887398756307953
  0.1751226316891731  0.8194377944340246  0.8298359735306837
  0.3380643701216637  0.7256102066219968  0.7313462496403459
  0.2527817195591819  0.9180695993346731  0.0195258431553854
  0.9757675081156011  0.6793749110187084  0.9124588088742462
  0.2622264920400837  0.0238337695678700  0.7835167969133530
  0.0888723886065817  0.9356855985804936  0.6993561647952324
  0.3962622821521560  0.7959006854437057  0.8844152456751662
  0.6715436257869709  0.2251720723627606  0.2577157875726771
  0.5644495058674752  0.0892490917442721  0.1943744371315412
  0.7273870571833432  0.1349192526278046  0.0744039378697193
  0.9282616397338913  0.2140776526132840  0.2676889603929525
  0.4443486503886573  0.9769428898130156  0.3116881373855969
  0.6393992338366188  0.3083787864244852  0.1228528823996795
  0.4943545441468247  0.2054638609684648  0.0629478895857090
  0.7925940333292338  0.0376862401710334  0.2072996141897034
  0.6809541358046161  0.3087359499483068  0.5707175267123784
  0.6319226248128295  0.0687045199183770  0.4099502831573897
  0.8743155797552241  0.0682771024373616  0.3938621735083350
  0.7569403001353708  0.1989186379292757  0.6976342807808394
  0.4752706386900387  0.0306673695269052  0.6197963351616022
  0.8421482867252522  0.3624398820717229  0.4288372209738373
  0.5844003121712610  0.2353753491536603  0.4319352068982764
  0.7192056584674822  0.1038536376655831  0.5467180683713331
  0.6105802619453726  0.2843303334016917  0.9102591020955960
  0.5381135493707688  0.1158155970612153  0.7742651649102292
  0.7479148320269047  0.0394960235591766  0.7286272317936648
  0.9099419062188456  0.2434903959146255  0.9423618333261685
  0.4082240150552157  0.0511022661462227  0.0576254334463577
  0.8031700583118676  0.3202441853986058  0.7744529582764922
  0.5559542707067415  0.2887032759780030  0.7386643092459398
  0.7430588487848218  0.1580992340057123  0.8681480425330462
  0.6144346425421175  0.5126267215771176  0.2224646154949478
  0.7786614427223548  0.4426631413491987  0.0949211921988131
  0.8735901076018252  0.2989235941301977  0.1104305408891804
  0.9671342515557249  0.5198469619012744  0.2819433575855377
  0.5055278908629584  0.3452683702853541  0.3082563417623646
  0.7402974394899192  0.6459681052763480  0.1793583604521162
  0.5892001147204042  0.5620783291287224  0.0452250604089892
  0.7717170537262906  0.3828405558226434  0.2586804602411507
  0.5296168508368730  0.5284911071115135  0.5784631353814066
  0.6012997901533004  0.4294254427898918  0.4448814876946875
  0.7963026596554119  0.5201238011888242  0.3977344870081833
  0.8311142338056924  0.6264374154563186  0.7159686692198683
  0.4569201235627357  0.3620340370291241  0.5984455773873785
  0.7149039021790993  0.6234926090086998  0.5261273565260857
  0.5826813141055588  0.5813768190679933  0.3965713702625475
  0.7647956949574105  0.4654379305861210  0.5593741804520133
  0.6904550349717886  0.5856713992658565  0.8676335273291361
  0.7051742748866404  0.4631277855581657  0.7372526328433129
  0.9225928703749242  0.4661058260964235  0.7408794279496366
  0.8374578464738961  0.5731173784243642  0.0310272616389189
  0.4564126953633076  0.3680129255907520  0.0287990160376795
  0.6964706686539024  0.7706699852735361  0.7312005890547418
  0.5759835100843310  0.6265034954783978  0.7251387979381663
  0.7913508609926926  0.4361465560627164  0.9062050852711033
  0.5883396823957420  0.8559775280410030  0.2273436319362986
  0.6841843726430457  0.7836171731849012  0.0835321191360012
  0.8916839194252200  0.7249982598685654  0.0526849272230489
  0.9589522123714448  0.8330244481038505  0.3853258879688026
  0.4833570617175131  0.6457527180907763  0.2608467988299184
  0.6721277513558094  0.9699955698132057  0.0731946682350737
  0.4287905458129663  0.9113751013019823  0.1353992210139562
  0.8251440706015984  0.7897764300058105  0.2217292810461232
  0.5334094644327042  0.8670334452288336  0.5918683170394333
  0.6191659262842544  0.7600138885049075  0.4395114686420813
  0.8334446123054449  0.6871433539618954  0.3706684848126378
  0.8600442091803092  0.8866181222054227  0.6697889649334834
  0.4734938458594426  0.6947853588037445  0.5874409098265639
  0.7589047323767850  0.9489140071297660  0.5048694915619933
  0.6151027971112296  0.9117917633662840  0.3922122465262827
  0.7953422484818836  0.7818467274982572  0.5173171498410547
  0.5716632151414872  0.8662935626839375  0.9772612710834054
  0.7362712866113311  0.9092205866736490  0.8298474570704909
  0.9030738812703991  0.7935582975176808  0.8103971824822691
  0.8543950331530054  0.8807307566368965  0.9652669963904976
  0.4882884607754210  0.6574941934544858  0.9229727259176810
  0.6191666469682747  0.0242137335538706  0.9030785586212807
  0.5394821183264757  0.9517460668497617  0.7563243286589010
  0.6987659581268081  0.7375627697543475  0.9024263377807991
  0.0252158619733499  0.2675037381912153  0.3219620375026248
  0.1629364867305474  0.0359312512794677  0.2539823772572238
  0.8815083102853059  0.2657384787751367  0.6826806838562222
  0.2872740375741768  0.0767605662412950  0.5159900260335489
  0.9955637132634665  0.2834613730550017  0.0330583593794126
  0.2244731023869324  0.1086793723056163  0.8403813986298929
  0.0746286025442547  0.5818539512896153  0.3089647690526942
  0.1218380822600437  0.3865531250182097  0.1899421512612670
  0.9701274686165338  0.6490038523181365  0.6659667107571504
  0.1962637961049290  0.3749297166025762  0.5069067911288573
  0.9654689404314748  0.6317787006832889  0.0161696607389385
  0.2009035227236229  0.4285424672664934  0.8115195036451609
  0.0769004388810587  0.8814485903598868  0.3251192709938793
  0.3113145353054760  0.7306244342440975  0.1150262637301760
  0.9839746355946427  0.9390546879944603  0.6320589622937018
  0.2286017690919827  0.7000066627613371  0.4984591239421246
  0.9642250178826612  0.9546670174723539  0.9702900690296526
  0.2838555556703963  0.7526739867539368  0.8364421158776325
  0.5534933998704179  0.2550138663643487  0.3307912189780033
  0.6925887655802355  0.0506540173616858  0.1371253842882349
  0.5478858532290249  0.2927619281337712  0.6273190339471398
  0.7545681280695687  0.0400717698994676  0.4595374593507825
  0.4915356386250927  0.2798561457852629  0.9853935118061612
  0.6140655525882761  0.0319751733763142  0.7907133532746738
  0.5226964320347428  0.5578903903650373  0.3025402376609234
  0.7657701075330878  0.3560681635169866  0.1541984367237302
  0.4915368787755153  0.6097598020158899  0.6442439431491237
  0.7975050722203494  0.3678693693360737  0.5370356711592942
  0.5664089217265426  0.5752417822011955  0.9407185607192979
  0.8039290689254851  0.4179181498912418  0.7990716733736932
  0.5144814691657296  0.8915443707978976  0.3210939754812777
  0.7784179039709861  0.7360573073989640  0.1390709052154167
  0.4745712738619765  0.9390894198662419  0.6630331542503713
  0.7333668346295911  0.7018377581927960  0.4614929739309948
  0.3360774634821318  0.9677740593072439  0.0884097905143267
  0.7961666096373649  0.8395416557303149  0.7593291273280005

  0.00000000E+00  0.00000000E+00  0.00000000E+00
  0.00000000E+00  0.00000000E+00  0.00000000E+00
  0.00000000E+00  0.00000000E+00  0.00000000E+00
  0.00000000E+00  0.00000000E+00  0.00000000E+00
  0.00000000E+00  0.00000000E+00  0.00000000E+00
  0.00000000E+00  0.00000000E+00  0.00000000E+00
  0.00000000E+00  0.00000000E+00  0.00000000E+00
  0.00000000E+00  0.00000000E+00  0.00000000E+00
  0.00000000E+00  0.00000000E+00  0.00000000E+00
  0.00000000E+00  0.00000000E+00  0.00000000E+00
  0.00000000E+00  0.00000000E+00  0.00000000E+00
  0.00000000E+00  0.00000000E+00  0.00000000E+00
  0.00000000E+00  0.00000000E+00  0.00000000E+00
  0.00000000E+00  0.00000000E+00  0.00000000E+00
  0.00000000E+00  0.00000000E+00  0.00000000E+00
  0.00000000E+00  0.00000000E+00  0.00000000E+00
  0.00000000E+00  0.00000000E+00  0.00000000E+00
  0.00000000E+00  0.00000000E+00  0.00000000E+00
  0.00000000E+00  0.00000000E+00  0.00000000E+00
  0.00000000E+00  0.00000000E+00  0.00000000E+00
  0.00000000E+00  0.00000000E+00  0.00000000E+00
  0.00000000E+00  0.00000000E+00  0.00000000E+00
  0.00000000E+00  0.00000000E+00  0.00000000E+00
  0.00000000E+00  0.00000000E+00  0.00000000E+00
  0.00000000E+00  0.00000000E+00  0.00000000E+00
  0.00000000E+00  0.00000000E+00  0.00000000E+00
  0.00000000E+00  0.00000000E+00  0.00000000E+00
  0.00000000E+00  0.00000000E+00  0.00000000E+00
  0.00000000E+00  0.00000000E+00  0.00000000E+00
  0.00000000E+00  0.00000000E+00  0.00000000E+00
  0.00000000E+00  0.00000000E+00  0.00000000E+00
  0.00000000E+00  0.00000000E+00  0.00000000E+00
  0.00000000E+00  0.00000000E+00  0.00000000E+00
  0.00000000E+00  0.00000000E+00  0.00000000E+00
  0.00000000E+00  0.00000000E+00  0.00000000E+00
  0.00000000E+00  0.00000000E+00  0.00000000E+00
  0.00000000E+00  0.00000000E+00  0.00000000E+00
  0.00000000E+00  0.00000000E+00  0.00000000E+00
  0.00000000E+00  0.00000000E+00  0.00000000E+00
  0.00000000E+00  0.00000000E+00  0.00000000E+00
  0.00000000E+00  0.00000000E+00  0.00000000E+00
  0.00000000E+00  0.00000000E+00  0.00000000E+00
  0.00000000E+00  0.00000000E+00  0.00000000E+00
  0.00000000E+00  0.00000000E+00  0.00000000E+00
  0.00000000E+00  0.00000000E+00  0.00000000E+00
  0.00000000E+00  0.00000000E+00  0.00000000E+00
  0.00000000E+00  0.00000000E+00  0.00000000E+00
  0.00000000E+00  0.00000000E+00  0.00000000E+00
  0.00000000E+00  0.00000000E+00  0.00000000E+00
  0.00000000E+00  0.00000000E+00  0.00000000E+00
  0.00000000E+00  0.00000000E+00  0.00000000E+00
  0.00000000E+00  0.00000000E+00  0.00000000E+00
  0.00000000E+00  0.00000000E+00  0.00000000E+00
  0.00000000E+00  0.00000000E+00  0.00000000E+00
  0.00000000E+00  0.00000000E+00  0.00000000E+00
  0.00000000E+00  0.00000000E+00  0.00000000E+00
  0.00000000E+00  0.00000000E+00  0.00000000E+00
  0.00000000E+00  0.00000000E+00  0.00000000E+00
  0.00000000E+00  0.00000000E+00  0.00000000E+00
  0.00000000E+00  0.00000000E+00  0.00000000E+00
  0.00000000E+00  0.00000000E+00  0.00000000E+00
  0.00000000E+00  0.00000000E+00  0.00000000E+00
  0.00000000E+00  0.00000000E+00  0.00000000E+00
  0.00000000E+00  0.00000000E+00  0.00000000E+00
  0.00000000E+00  0.00000000E+00  0.00000000E+00
  0.00000000E+00  0.00000000E+00  0.00000000E+00
  0.00000000E+00  0.00000000E+00  0.00000000E+00
  0.00000000E+00  0.00000000E+00  0.00000000E+00
  0.00000000E+00  0.00000000E+00  0.00000000E+00
  0.00000000E+00  0.00000000E+00  0.00000000E+00
  0.00000000E+00  0.00000000E+00  0.00000000E+00
  0.00000000E+00  0.00000000E+00  0.00000000E+00
  0.00000000E+00  0.00000000E+00  0.00000000E+00
  0.00000000E+00  0.00000000E+00  0.00000000E+00
  0.00000000E+00  0.00000000E+00  0.00000000E+00
  0.00000000E+00  0.00000000E+00  0.00000000E+00
  0.00000000E+00  0.00000000E+00  0.00000000E+00
  0.00000000E+00  0.00000000E+00  0.00000000E+00
  0.00000000E+00  0.00000000E+00  0.00000000E+00
  0.00000000E+00  0.00000000E+00  0.00000000E+00
  0.00000000E+00  0.00000000E+00  0.00000000E+00
  0.00000000E+00  0.00000000E+00  0.00000000E+00
  0.00000000E+00  0.00000000E+00  0.00000000E+00
  0.00000000E+00  0.00000000E+00  0.00000000E+00
  0.00000000E+00  0.00000000E+00  0.00000000E+00
  0.00000000E+00  0.00000000E+00  0.00000000E+00
  0.00000000E+00  0.00000000E+00  0.00000000E+00
  0.00000000E+00  0.00000000E+00  0.00000000E+00
  0.00000000E+00  0.00000000E+00  0.00000000E+00
  0.00000000E+00  0.00000000E+00  0.00000000E+00
  0.00000000E+00  0.00000000E+00  0.00000000E+00
  0.00000000E+00  0.00000000E+00  0.00000000E+00
  0.00000000E+00  0.00000000E+00  0.00000000E+00
  0.00000000E+00  0.00000000E+00  0.00000000E+00
  0.00000000E+00  0.00000000E+00  0.00000000E+00
  0.00000000E+00  0.00000000E+00  0.00000000E+00
  0.00000000E+00  0.00000000E+00  0.00000000E+00
  0.00000000E+00  0.00000000E+00  0.00000000E+00
  0.00000000E+00  0.00000000E+00  0.00000000E+00
  0.00000000E+00  0.00000000E+00  0.00000000E+00
  0.00000000E+00  0.00000000E+00  0.00000000E+00
  0.00000000E+00  0.00000000E+00  0.00000000E+00
  0.00000000E+00  0.00000000E+00  0.00000000E+00
  0.00000000E+00  0.00000000E+00  0.00000000E+00
  0.00000000E+00  0.00000000E+00  0.00000000E+00
  0.00000000E+00  0.00000000E+00  0.00000000E+00
  0.00000000E+00  0.00000000E+00  0.00000000E+00
  0.00000000E+00  0.00000000E+00  0.00000000E+00
  0.00000000E+00  0.00000000E+00  0.00000000E+00
  0.00000000E+00  0.00000000E+00  0.00000000E+00
  0.00000000E+00  0.00000000E+00  0.00000000E+00
  0.00000000E+00  0.00000000E+00  0.00000000E+00
  0.00000000E+00  0.00000000E+00  0.00000000E+00
  0.00000000E+00  0.00000000E+00  0.00000000E+00
  0.00000000E+00  0.00000000E+00  0.00000000E+00
  0.00000000E+00  0.00000000E+00  0.00000000E+00
  0.00000000E+00  0.00000000E+00  0.00000000E+00
  0.00000000E+00  0.00000000E+00  0.00000000E+00
  0.00000000E+00  0.00000000E+00  0.00000000E+00
  0.00000000E+00  0.00000000E+00  0.00000000E+00
  0.00000000E+00  0.00000000E+00  0.00000000E+00
  0.00000000E+00  0.00000000E+00  0.00000000E+00
  0.00000000E+00  0.00000000E+00  0.00000000E+00
  0.00000000E+00  0.00000000E+00  0.00000000E+00
  0.00000000E+00  0.00000000E+00  0.00000000E+00
  0.00000000E+00  0.00000000E+00  0.00000000E+00
  0.00000000E+00  0.00000000E+00  0.00000000E+00
  0.00000000E+00  0.00000000E+00  0.00000000E+00
  0.00000000E+00  0.00000000E+00  0.00000000E+00
  0.00000000E+00  0.00000000E+00  0.00000000E+00
  0.00000000E+00  0.00000000E+00  0.00000000E+00
  0.00000000E+00  0.00000000E+00  0.00000000E+00
  0.00000000E+00  0.00000000E+00  0.00000000E+00
  0.00000000E+00  0.00000000E+00  0.00000000E+00
  0.00000000E+00  0.00000000E+00  0.00000000E+00
  0.00000000E+00  0.00000000E+00  0.00000000E+00
  0.00000000E+00  0.00000000E+00  0.00000000E+00
  0.00000000E+00  0.00000000E+00  0.00000000E+00
  0.00000000E+00  0.00000000E+00  0.00000000E+00
  0.00000000E+00  0.00000000E+00  0.00000000E+00
  0.00000000E+00  0.00000000E+00  0.00000000E+00
  0.00000000E+00  0.00000000E+00  0.00000000E+00
  0.00000000E+00  0.00000000E+00  0.00000000E+00
  0.00000000E+00  0.00000000E+00  0.00000000E+00
  0.00000000E+00  0.00000000E+00  0.00000000E+00
  0.00000000E+00  0.00000000E+00  0.00000000E+00
  0.00000000E+00  0.00000000E+00  0.00000000E+00
  0.00000000E+00  0.00000000E+00  0.00000000E+00
  0.00000000E+00  0.00000000E+00  0.00000000E+00
  0.00000000E+00  0.00000000E+00  0.00000000E+00
  0.00000000E+00  0.00000000E+00  0.00000000E+00
  0.00000000E+00  0.00000000E+00  0.00000000E+00
  0.00000000E+00  0.00000000E+00  0.00000000E+00
  0.00000000E+00  0.00000000E+00  0.00000000E+00
  0.00000000E+00  0.00000000E+00  0.00000000E+00
  0.00000000E+00  0.00000000E+00  0.00000000E+00
  0.00000000E+00  0.00000000E+00  0.00000000E+00
  0.00000000E+00  0.00000000E+00  0.00000000E+00
  0.00000000E+00  0.00000000E+00  0.00000000E+00
  0.00000000E+00  0.00000000E+00  0.00000000E+00
  0.00000000E+00  0.00000000E+00  0.00000000E+00
  0.00000000E+00  0.00000000E+00  0.00000000E+00
  0.00000000E+00  0.00000000E+00  0.00000000E+00
  0.00000000E+00  0.00000000E+00  0.00000000E+00
  0.00000000E+00  0.00000000E+00  0.00000000E+00
  0.00000000E+00  0.00000000E+00  0.00000000E+00
  0.00000000E+00  0.00000000E+00  0.00000000E+00
  0.00000000E+00  0.00000000E+00  0.00000000E+00
  0.00000000E+00  0.00000000E+00  0.00000000E+00
  0.00000000E+00  0.00000000E+00  0.00000000E+00
  0.00000000E+00  0.00000000E+00  0.00000000E+00
  0.00000000E+00  0.00000000E+00  0.00000000E+00
  0.00000000E+00  0.00000000E+00  0.00000000E+00
  0.00000000E+00  0.00000000E+00  0.00000000E+00
  0.00000000E+00  0.00000000E+00  0.00000000E+00
  0.00000000E+00  0.00000000E+00  0.00000000E+00
  0.00000000E+00  0.00000000E+00  0.00000000E+00
  0.00000000E+00  0.00000000E+00  0.00000000E+00
  0.00000000E+00  0.00000000E+00  0.00000000E+00
  0.00000000E+00  0.00000000E+00  0.00000000E+00
  0.00000000E+00  0.00000000E+00  0.00000000E+00
  0.00000000E+00  0.00000000E+00  0.00000000E+00
  0.00000000E+00  0.00000000E+00  0.00000000E+00
  0.00000000E+00  0.00000000E+00  0.00000000E+00
  0.00000000E+00  0.00000000E+00  0.00000000E+00
  0.00000000E+00  0.00000000E+00  0.00000000E+00
  0.00000000E+00  0.00000000E+00  0.00000000E+00
  0.00000000E+00  0.00000000E+00  0.00000000E+00
  0.00000000E+00  0.00000000E+00  0.00000000E+00
  0.00000000E+00  0.00000000E+00  0.00000000E+00
  0.00000000E+00  0.00000000E+00  0.00000000E+00
  0.00000000E+00  0.00000000E+00  0.00000000E+00
  0.00000000E+00  0.00000000E+00  0.00000000E+00
  0.00000000E+00  0.00000000E+00  0.00000000E+00
  0.00000000E+00  0.00000000E+00  0.00000000E+00
  0.00000000E+00  0.00000000E+00  0.00000000E+00
  0.00000000E+00  0.00000000E+00  0.00000000E+00
  0.00000000E+00  0.00000000E+00  0.00000000E+00
  0.00000000E+00  0.00000000E+00  0.00000000E+00
  0.00000000E+00  0.00000000E+00  0.00000000E+00
  0.00000000E+00  0.00000000E+00  0.00000000E+00
  0.00000000E+00  0.00000000E+00  0.00000000E+00
  0.00000000E+00  0.00000000E+00  0.00000000E+00
  0.00000000E+00  0.00000000E+00  0.00000000E+00
  0.00000000E+00  0.00000000E+00  0.00000000E+00
  0.00000000E+00  0.00000000E+00  0.00000000E+00
  0.00000000E+00  0.00000000E+00  0.00000000E+00
  0.00000000E+00  0.00000000E+00  0.00000000E+00
  0.00000000E+00  0.00000000E+00  0.00000000E+00
  0.00000000E+00  0.00000000E+00  0.00000000E+00
  0.00000000E+00  0.00000000E+00  0.00000000E+00
  0.00000000E+00  0.00000000E+00  0.00000000E+00
  0.00000000E+00  0.00000000E+00  0.00000000E+00
  0.00000000E+00  0.00000000E+00  0.00000000E+00
  0.00000000E+00  0.00000000E+00  0.00000000E+00
  0.00000000E+00  0.00000000E+00  0.00000000E+00
