   792
 Wannier centres, written by Wannier90 on13Jan2025 at 17:22:38 
X         10.77079102       7.47041733      11.29979810
X          4.60381299       3.70267798      13.80803746
X          7.91641113       7.46515491      11.08871359
X          2.08083448       4.66340361      13.82229846
X          2.12045766       3.82068380       3.92996712
X          4.20385252       9.00268058      10.44924692
X          6.71927110      12.35453690       6.66677005
X          2.44382931      14.77898975       0.23993085
X          7.00165450       1.03008347       6.17885094
X          6.70771992       6.70777825       6.83267437
X          0.87202206       7.05188996       7.08451007
X          3.40023008       2.05556598       9.33043699
X          7.38669331       0.43602623      13.82516549
X          0.74453540      16.00228774       4.94327431
X          7.96111848       9.38016853      12.86142299
X          6.67765078       9.65064613       6.16481758
X          8.25682343      10.01947903       8.33533999
X          6.31512141      15.21898030      11.55896805
X          6.85261688       4.96632416       1.95846411
X          2.38909907       9.40571610       3.55118546
X         10.42444061       5.44913685       9.45369902
X          4.77931932       3.06343474       4.53553459
X          2.52627876      10.01980690       8.61810500
X          5.91843017       7.77203570      13.65398596
X         10.52833827      12.73953300      12.40761488
X          5.55552100      11.36366880       8.67628429
X          0.76008413       7.59707587       1.78163837
X          7.77984159      12.41732274      11.01140090
X          1.57887065       5.84336893      11.55004611
X          7.60878324       3.70119983       3.99063101
X          1.30776418       2.34301533      12.54339491
X          6.61965416      13.72544871       3.73897430
X          1.99844630       4.75782312       8.54513222
X          4.73708586       5.95293193       0.90111080
X          3.34121547      10.19110220       1.32812527
X          3.99295795       2.92262594      11.34935706
X          4.72522970       0.79728083       1.13928019
X          8.63505861      15.27113846       8.01977610
X          9.16996487      12.94042546       3.79824601
X          0.06163367       2.73258201       1.07719054
X          5.67579355      10.71532176      13.71032156
X          1.24271872       8.85575050      13.95126604
X          5.71506537       5.79048309       4.93350481
X          5.46136906      10.64688086       4.00856984
X          9.53476662       5.59324660       6.65744764
X          2.02650079       1.82134415       6.91777785
X          2.72025042      10.92151267      13.18322518
X          7.84247044      10.39031762       3.24105804
X          1.27806445      11.98474151       6.49423003
X          4.04006706       6.36713607      10.97372795
X          9.74770753      14.11667871      10.16412233
X         10.33974455      13.55681603       6.23058309
X          9.52650290       4.63019743       2.43447184
X          3.74544796      10.66894557       6.11766050
X          2.16810993      13.40560094      12.35998410
X          6.48300999       4.71641126      11.37830181
X          6.89340487       3.65001609       6.74944022
X          4.46870186      13.28770963       5.77514171
X          1.42610122       5.00284333       1.71124420
X         10.29973743       3.83967859      14.30920865
X          8.83071925      12.64982223       8.30140815
X          4.21658665      11.55244667      10.77686777
X          3.57797297      12.39460684       3.47850715
X         11.27101222       6.14419787      14.83493100
X          6.69629749      14.70064580       6.44061107
X         10.02078891       3.37536763       4.41964517
X          7.34141338      12.57101449       1.38892764
X          6.83532890       8.03127565       3.57058067
X         10.88496172       0.55076899       9.35812809
X          0.71134525      10.33477549       1.61618601
X          9.99269462       1.14120043       6.40542593
X          9.76570829      11.86359192       1.39151829
X          3.85418826      14.41698315      10.60475601
X          2.47459820      14.31668798       5.46041179
X          1.77183917      12.60113549       1.46134598
X          3.55257876       7.85693155       1.36519780
X          6.27361807       1.70882825      11.86436130
X          4.84780082      13.13315599      13.30641084
X         10.73266042      14.94878197       1.87175703
X          6.14465313       9.11923386       1.21348358
X          4.88309583      14.89514330       2.26049576
X         10.76123011       8.13100623       4.61549725
X          5.61925198       0.60991284       9.10745731
X          2.03124351       8.48597366      11.38508751
X          7.34665473       4.66147878      13.43209984
X          3.54100251       1.26914290      14.13139195
X          9.11608995       7.23201899      13.79468720
X          8.90854876       8.59636524       6.22209148
X          1.22781030      10.89798219      10.99136544
X          0.71117362      11.15432653       3.96043727
X          3.13394566       1.56262839       4.41433743
X          8.60184461       3.09903117      10.49955924
X          3.04333473       5.52621698       5.92975830
X          9.08325069       0.52451687       3.48045008
X          4.50647157       7.86024493       5.21192523
X         10.97219680       5.99972517       4.89426192
X         11.24789272       3.45796443      11.57016487
X          5.41967629       5.99208070       8.82826309
X          8.97253144       0.46277816      11.10681944
X          8.89178375       9.26860862       0.80294673
X          9.26109974      11.02103250       5.64462881
X          0.83066943       1.35897508       2.91557657
X          7.93907075       4.69957439       8.75798403
X          3.67662426       0.41573457      11.37750454
X          0.84924686      13.73921002       2.93879309
X          8.92587033       4.83513555      11.93048125
X          8.28789222      14.89796105      12.51432448
X          8.50687512       5.91129485       4.42402095
X          0.29883699       4.09069959       6.41564049
X          3.08083937       6.55591171       3.33309577
X         11.41782017      10.73397244      13.67909941
X          3.25628253       7.06261466      13.75979738
X          9.81675956      14.16873492      14.90362801
X         10.80574179       9.19136692       9.22944567
X          4.72649165       1.94590202       6.85772542
X         10.67913559      11.99548556       9.61772837
X          8.61933772       2.23044255      13.19371703
X          6.59121442      14.11782016      14.58260293
X          5.98140799       1.32970164       3.51724778
X          4.86047145      12.06004801       1.38079666
X          1.50708679      15.37341352      12.66472390
X          4.61585681      15.94055691       4.85340169
X          2.43562420      15.76716402       2.92899210
X          5.14005831       2.99635736       1.07587127
X          7.83604387       1.65870969       8.41105286
X          1.46608243       9.58690598       6.19130146
X          3.48078983       7.44126968       8.59050999
X          6.43714872       8.42539815       8.52545755
X          0.59560799      14.60120977       7.67674492
X          6.71086551       9.93010906      11.14958330
X          3.34677563      15.74449784       8.01610415
X          2.89981299       2.81078927       2.01942026
X          8.44726757       7.70055289       8.40713496
X          2.12084913       4.17851783      13.86750352
X         10.33014846       2.84666741       9.22044087
X          5.85149202      13.69773870       9.16181923
X          8.29310547       7.07814410       1.73855016
X          7.12895186      15.74484309       1.09634443
X          5.80442208       3.08091407       8.84387484
X          3.04202840      12.71186793       8.33498118
X          7.78850915      12.04127001      13.77439897
X          9.10733490      10.25948746      11.21660908
X          1.58319890      15.32225684      10.23418314
X          8.15399532       2.12775741       1.70053077
X         10.18951686       0.58934133      14.88345363
X          2.10797988      15.52304127       2.47593193
X          9.18172731       5.49172142      11.81615178
X          9.90926867      13.80363436      14.47020874
X          7.43337789      15.62794527       1.44245250
X          5.84795115      14.13126603       8.86957820
X          1.13940315       5.30636985       2.08962766
X          6.44262207       1.45562349       3.31791728
X          3.00086967       7.00717058       8.20700083
X          5.89672112       0.41187191       9.53272728
X          8.80499835       7.16210455       1.57813173
X          9.63909312      10.26927533      10.71359406
X          4.87311570       1.57545309       6.38677719
X          9.44319757      11.80912619       0.96784660
X          6.16842128       1.80611918      11.32908623
X          9.84328477       4.69748704       1.92453678
X          0.55436190       5.98742626       3.77948047
X          7.42336402       4.90321821       8.73326132
X         10.27857158       0.76260871      14.44006438
X          0.42692785       9.01220711       8.55705485
X          3.20889183      13.06533527       7.98451101
X          1.00568277      15.39261860      13.20588767
X          8.52765447      12.17963864      13.64289194
X          6.22073346       2.91937001       8.95590995
X          8.54184694       7.38854436       8.86869007
X          0.95697004       1.96344256       2.95333205
X          0.49072323      13.89846945       3.34741579
X          5.90384144       8.63333251       8.66027016
X         10.90552724      10.82200543      13.99737410
X          2.85357988      10.25268296       1.27242645
X          5.25901451       3.41271861       1.37249038
X          9.67403289      14.13223467      10.70531175
X          6.81557602      10.41519293      11.24125256
X          1.59967394       9.07664376       6.37090862
X          5.02080675      12.66574334       1.44449094
X         10.95178848       2.92892981       9.15603833
X          2.58636096      15.26592572       0.58425525
X         11.16896001       6.38869961      15.22063997
X          1.34772863       5.72022425      12.00866346
X          8.33088297       1.75725990       8.27358607
X          8.09731335       2.16603723       1.15536562
X         10.04649469       5.09824471       9.69783643
X          7.07906631       4.44641598       2.24259152
X          3.50319564       6.69196494      13.66838745
X          2.94787144       0.99747299       4.35787510
X          0.53106366      16.04169555       4.48839081
X         11.09908598      12.04570710       9.38747638
X          1.35288596      14.93340863      10.24413114
X          0.84205301       9.24852308      14.11830126
X          3.05940603       6.37925595       3.83374557
X          6.38999589       9.27781783       6.36283204
X          9.04154299       3.42181147      10.64530182
X          2.38601656       9.73468280       8.13418361
X          5.74961345       5.18165992       5.00796574
X          3.58097327       1.78453001      14.23137582
X          6.50528033      15.75174351      11.44509056
X         10.90568163      13.62836638       6.10024710
X          7.40801057      12.97526122       1.70451295
X          0.56859404      11.29019823       4.40198412
X          0.57337525      14.64301167       8.24274014
X          1.31415671       7.75549295       1.82579643
X          9.19007354       8.81517656       0.90237722
X         10.75662860       3.91717609      14.71569706
X          8.63464613      14.37427089      12.41572102
X         10.24898517       7.17535487      11.62678153
X          7.16786225       7.40141711       7.21555069
X         10.83016407      -0.00867708       9.61764589
X          6.97704638      12.49318454       7.15626559
X          9.08730344       2.42913385      13.24451660
X          3.98990918      11.92453288      11.26609990
X          2.21088357       8.02376235      11.77298130
X          4.69950521       9.32039554      10.14903038
X          6.55165892      14.59750640       5.84149040
X          4.32531416       1.10276156       0.82969250
X          3.63613440       1.69287280       8.84392155
X          6.15297213      13.68981542       3.43153256
X          8.94848977       7.94338438       6.03113791
X          9.16982468       5.91899102       6.71076196
X          4.88008152       8.22037218       4.89036692
X         10.09056009      12.51705449      12.67469858
X          3.37364428       7.57784480       0.90210807
X          0.78087214       3.89414176      10.92243991
X          6.37271764       9.21838223       0.65587814
X          3.17441482      12.22416700       3.62493275
X          4.32722287      14.97551752       1.98772189
X          4.23511450       6.88390310      10.78309826
X          1.89824772       2.24599167      12.65916477
X          3.20806184       0.63296726      11.76277257
X          6.97357848       4.52872510      11.28452251
X          6.03762239       8.35818808      13.71244035
X          1.98311504       1.78409395       7.40915037
X          8.79842755      12.25639051       7.88319442
X          5.12384762       2.63917100       4.65559216
X          4.41550955      14.65045919      10.25646792
X          7.84321754       0.03858997      13.71024486
X          7.09133238       8.48332287       3.43945520
X          7.30231105       4.18565126      13.38443648
X          0.24795480      15.31790440       1.12819304
X          8.10805345      15.22732093       7.94055148
X          5.12217384      10.77546547       4.44145326
X          6.52282419       3.77286666       6.29160394
X          7.96983643       9.88580446      12.91786331
X          2.26410977       5.10228918       8.15541886
X          8.09474902      10.75395158       2.84803432
X          6.78456485      13.58715299      14.50536629
X          3.41697457      15.64861488       7.55261191
X          1.40985842      10.50929649      10.82691439
X          0.53852178       4.08027765       5.88295163
X          1.89937539      13.09136215       1.41161117
X          9.85836705       0.81127594       6.07024938
X          4.98753816       5.56517493       0.50747519
X          7.92704667       9.72064834       7.93839578
X          3.45506578      11.05059578       6.51487687
X          8.87132907       0.94491714      10.95792173
X          7.25678364       1.36556064       6.57272072
X          0.41947199      10.25913054       1.06675495
X          5.44274753      11.59402572       9.18418889
X          3.07923292      11.18936107      12.80732406
X          8.56125231       6.09521325       3.86832341
X          8.35651948       7.24105514      11.54776328
X          1.37665364       7.35786280       7.20524425
X          1.63308168      11.77363697       6.97860180
X          8.89263618      11.20488682       6.16543278
X         10.24389257       2.90835293       4.62979118
X          4.84534592      13.59669921       5.37488256
X          8.50743866       0.59851916       3.24550526
X          1.86235955       9.21616138       3.79929603
X          2.51938620      13.78461817      12.14588729
X          9.23265790       6.80625885      13.93587493
X          5.09188205      15.50008453       4.85083149
X          2.38312731       3.07201632       1.86522199
X          8.21947688      12.77188520      11.30296818
X          5.60090146       5.52170955       9.19992613
X          5.98015668      10.98061113      14.06560664
X          1.55130967       4.03103982       4.20863825
X          4.63748710       3.62793026      14.37752608
X          1.91427212      14.14801208       5.36137935
X          5.09098127      12.81591457      13.04821145
X          0.07902197       3.36569587       0.91860404
X          7.12229751       3.49508642       3.78069570
X          3.02760944       5.80630986       6.47827691
X          3.76676318       2.53379266      11.81387548
X         10.89813724       8.58512516       4.95559142
X          8.86710566      12.53518970       3.42943997
X          9.98058272       5.34689229       9.11178889
X          9.48048678       5.11517085       2.26590180
X          5.97630941      15.56417750      11.39552401
X          0.36087057       5.52599791       4.23057967
X          7.78028303       5.00745890       9.11597532
X          1.64762051       3.54113142       3.82673153
X          8.31400035       9.48866504      13.17629065
X          9.45488167      14.46198693      10.33799244
X          1.08287974      16.09211625       4.51503013
X          5.27677081       3.29167772       4.82104164
X         -0.15790777      15.32601206       0.62519546
X          7.31025700       5.13501726       2.41052881
X          0.64325940      10.64581985       4.32272470
X          2.58481710      10.39714421       8.13149344
X          9.96625076      12.99211080      12.25425759
X          0.92384019       9.81770154       1.44495825
X          5.61101054       5.52321352       4.55996656
X          7.53864454      12.45544206       1.96302904
X          6.70142688       1.47177691      11.62838176
X          4.37063895       8.81415202       9.93592185
X          1.38132884       6.69314821       7.29394450
X          8.53016742       7.44220742      10.91724994
X          2.82760163      14.80914385       0.66539227
X         11.04320623       9.37674131       9.67687675
X          0.89158175      13.75923310       3.63040871
X          1.69477743       2.17669428      12.16040172
X          1.72255443       4.35215477      13.52931322
X         10.19466478      14.45727709      14.60336007
X          9.35851144      12.43693256       3.96007574
X          6.14769690       8.85374338       9.07150088
X         11.00186827      11.33513317      13.95692631
X          4.34935434      14.01094282      10.33703113
X         10.44606707       3.33370417      14.42737933
X          9.63551657       7.11679208      13.98303591
X          9.66100282       1.21236121       5.96027668
X          6.58197992       8.46951058       3.95384687
X         11.52532834       5.71797869      15.24326037
X          2.26566603       8.65527357      11.76433703
X          3.21981759       6.94180894      13.13240258
X          7.22127656      11.98764715       6.87842462
X          4.60867653      12.92009088       5.32939327
X          7.43320832       3.28338044       4.21638516
X          1.13967066      10.41315452      11.23935362
X         10.12080458       7.62825509      11.00774348
X          6.09262960      14.33323692       9.27969139
X          9.36022970      12.65381053       8.00265308
X          1.08632081       7.21548899       2.18436454
X          6.47351790       1.09348499       2.97640061
X          3.81931595      11.18283656       5.87335966
X          6.46891970       3.80571114       6.89588881
X          2.05253472       9.20276137       3.05352358
X          2.53398490       1.71072507       7.25434312
X          1.88988171       6.04229290      12.00423823
X          2.95918702      15.62586210       7.67976359
X          3.82736601       1.68554051       9.52357030
X          6.11130471      10.29706484      13.92390718
X          7.96600343      10.03127497       2.78808116
X          4.54130258      14.63086496       2.44263731
X          6.81750115       9.03647040       6.42267745
X          2.24121230      14.27542611       5.97080925
X          3.96406575       1.64362622      14.10508363
X          9.56616567       6.16502067       6.59252591
X          5.51256664      10.88514702       9.10749685
X          5.50086101       0.06021617       9.43741283
X          1.45492685      15.18203998      10.70907043
X          7.82389409       1.71086049       1.66094711
X          8.37351059       0.54093777      11.38784572
X          5.37013231       6.20025439       9.29124222
X          4.24844754       0.43832993       1.05962176
X          3.97861085      11.96528641      10.60552482
X          8.41220495      15.70100949       7.63118446
X          0.78826497       3.91113095       6.52622258
X          3.68547335       6.79611739      11.24779010
X          4.21954861       2.40448662      11.23989922
X         11.38442466       3.85376079      11.96064927
X          7.16631060      16.05767194       1.71306174
X          5.44542966      10.11370241       4.33882703
X         10.60079686       0.17341660      14.67744439
X         10.44450334       8.01369559       5.05842855
X          7.43694192       0.33415088      13.17022128
X          2.94339077       2.65045863       1.38573308
X         10.96852415      11.46319891       9.69906891
X          5.49177767       7.87261080      13.89854915
X          7.04445118      14.41319946       6.40573709
X          2.46249722       4.63311651       8.44420358
X          5.50008777       3.57302577       0.96278622
X          4.50782212       7.57812587       4.82440476
X          3.66018564      11.99197052       3.78624130
X          7.79245343      10.24089171       8.19564857
X         10.46518567       3.54305173       4.82805682
X          7.50537020       0.82167014       6.57403760
X          3.00178839       8.17671183       1.27192471
X          9.45215282      11.03774283       6.10214779
X          2.23574141      14.74796424       0.85333273
X          8.89965156       0.88096363       3.76563993
X          6.46025178       8.82089016       1.05328339
X          8.84129619       7.11302010       8.55637634
X          1.26231343      15.84376191      12.93802643
X          7.94840457      12.14944182      11.49235215
X          3.23756778      12.37851696       7.96112962
X          8.89112410       6.30639588       4.47560465
X          3.12838466      10.69851069       1.58290252
X          1.92911594      12.69525366       1.03351603
X          8.32210431       1.23584633       8.23722318
X         10.52460436      13.06353194       5.92635635
X          0.47131914       1.54865175       3.33502260
X          5.72791628       2.84760220       9.45198025
X          2.56934570      10.62397664      12.74585893
X          6.47382284      10.17729675      10.64764816
X          3.02143060       6.12287839       3.41232583
X          4.58561264       6.18269969       0.39657160
X          1.14722623       4.58345853       2.00784732
X          3.65609518       1.25420613       4.39189632
X          3.38920288       5.93636176       5.81432608
X          4.91748836      12.29875972       0.81054012
X          9.71419020      10.03577542      11.17399821
X          3.25264558       7.43469085       8.03039353
X          1.15256805       7.24864080       7.54052168
X          6.31807931       1.78737861       3.02229883
X          2.71976339      13.08327804      12.31475369
X          4.91012025      13.12780881       5.65100424
X          1.02159230       9.11113708      13.47340144
X          8.43906963       8.26218838       6.62915056
X          6.04642828      13.97442340       0.50204960
X          4.94527725      16.17120017       4.60033401
X          6.92294338       4.52446932      13.85142100
X          0.61872039       5.99539143       4.31311179
X         10.88013224       3.79439689      14.02676077
X          0.92140319      12.00949580       6.95708797
X          9.34345980       9.46675258       1.06081373
X          0.18323890      11.23099769       4.14177682
X          5.16048187      12.65013547      13.48436356
X          6.95521906      12.84817051       1.78457275
X         10.52167428       0.64693913       9.77543335
X          8.19452825      10.30602420       7.83929667
X          8.88679346       2.49657932      13.64918604
X          4.27130256       0.94297516       1.29380284
X          2.11713371      10.08442571       8.31482412
X          7.21937456      12.70061311       6.86789771
X          1.71584053       4.44082789      14.21715387
X          3.54171808       0.25200317      11.87230110
X          1.18063832       9.22161466       6.37576166
X          8.30259962      14.65781929      13.02841208
X          8.91634746       7.68557292       8.99250435
X          8.95611316       2.73792732      10.64412983
X          5.04997115       6.14797687       0.61623344
X          4.04854445      14.22946025      10.04432520
X          2.63760142      15.91571427       2.39649356
X          0.30133836      14.85938101       1.00779854
X          0.35037024       9.98609129       1.55505972
X          2.50001760       6.37106845       3.36949470
X          7.48979187       4.43649080      13.84004160
X          9.75058965      11.30911074       1.29143436
X          8.46756007       1.58773188       8.85750350
X          3.50025203      -0.00361454       7.72021541
X          4.88690288       3.30405990      14.22679102
X          4.00169924      11.00829641       6.30890501
X          0.49026009      14.03419578       7.78197967
X          0.79028461      15.53895757       4.65032864
X          4.28224262       8.06496794       4.87675813
X          8.49762530       6.79114313       2.14001911
X          0.67002394       8.62509435      13.91979498
X          6.55390101       3.25174396       6.84280090
X          8.37073624      11.76548646      13.85662004
X          6.66808206       8.40906921       3.34348166
X          8.31542025      10.32139883       3.13446501
X          4.63563240       8.61777171      10.18653073
X          3.09011854      10.63353272      13.04875018
X          8.21602883      12.18532715      11.14308848
X          6.16945579      14.08008595       3.97551304
X          4.38528975      12.09894281      10.62384901
X          9.45290046       4.95907491      11.50001699
X          6.70255654       4.22708561      11.32751567
X          1.14809478       1.38688072       3.36019331
X          4.30672386       2.69095719      11.61600863
X          1.83576720       8.66733872      11.87508774
X          1.12067573      14.44500935       7.79745367
X          3.62727185      12.72561269       8.50563383
X          0.74858865       6.45807844      14.37298969
X         10.65046394      13.23367618       6.63333045
X          4.36848275      12.32916612       1.33017070
X          9.41937661       5.84602615       7.22581186
X         10.30411119       7.71016556      11.43764964
X          2.36581239      13.38507299      11.93922548
X          0.57626284       3.00870714       1.16608575
X          5.43449857       0.69961906       9.70090438
X          8.88957736      12.62472306       4.01741276
X          5.63995116       8.01161780      13.36194576
X          8.13553426      11.66866493      13.22057013
X          1.28211092       9.22301613       5.72787701
X          8.66511678      12.92912591       7.83141989
X          8.40898196       6.37805468       4.39302109
X          3.01693976      16.23400621      11.58653540
X          9.28534884      11.69514190       1.62606389
X         10.49810524       3.26559363       9.59572781
X          3.58302268       7.91103881       0.79883446
X          2.36419176      13.87243786       5.67500169
X          0.87368109      10.62509807      10.56482950
X          7.20801531      14.27165049      14.52904229
X          1.54080052      15.53651255      13.14391757
X          2.35762550      12.51957132       1.43793839
X         11.06332174       3.93195393      11.24029144
X          5.68601513       3.19900951       1.54377842
X          8.65865328       0.58336815      10.79110947
X          7.06697107      10.17564210      10.96675808
X          5.20122445       5.64040240       4.86882200
X          1.62471093       3.81437576       3.50607802
X          2.81600070       7.69330521       8.22395839
X          5.28301135       3.08952824       4.23520177
X          0.38764939       3.09142708       1.55200287
X          6.52278811       4.60958153      10.73570660
X          6.96614412       1.17126325       6.80114307
X          1.63230913       2.78647518      12.35775681
X          4.86154495      14.49730439       2.03961376
X          2.90659932      10.04717286       1.66237786
X          6.37487038       9.20511199       5.79611730
X          6.93777511      15.37985259       1.62394882
X          9.04307442       8.12806981       6.41887583
X          9.40583900       9.63799382      10.81411668
X          9.23246498       4.70246913       2.04731111
X          5.05496158       5.87654570       9.11468210
X         10.43891995       2.56768685       9.59598509
X         10.02309067      14.55263919      10.33894353
X          1.03355426       7.82932385       2.16319551
X          7.74663181       9.40767784      13.39898320
X          9.94177824       5.66820901       9.53223212
X          5.24228472       1.74990002       7.04278169
X         10.58140675       3.28268323       4.25109481
X          6.16926327      10.93638686      13.65699769
X          2.02692784       4.44283189       8.11646187
X          9.46226403      11.46783650       5.74160533
X          8.71799532       0.37225411       3.75811623
X          8.31563486      14.97689500       7.60601178
X          8.74348758       9.16638037       1.34629853
X          1.65701129       5.33469616      11.93269171
X          8.52046803       3.19471064      11.09124936
X          2.07810094       2.24728860       7.29605994
X          7.18567076       3.77086262       4.44145127
X          8.32451737       7.51085154       2.05079501
X          3.44808907       1.57545125      13.58177558
X          8.57054743       2.79209867      12.99746231
X          2.26707112       8.93354125       3.46464042
X          4.00235683       2.01315713       9.36167707
X          0.87720956       5.01184378       1.51852234
X          0.98025527      15.35733520      10.15316348
X         10.66611798       8.81494352       9.59985052
X          0.64872350       4.40900143       6.32661637
X          6.99303207      14.95356036       6.13153117
X          3.38953286      12.00794601       3.09465473
X          6.73535797       9.12186323       1.31640009
X          5.10309810       3.97547777      14.12723795
X          6.25294580      15.34905792      11.00498422
X          3.74461143       7.08393225      13.65129486
X          6.38733523      14.04657183       3.28286289
X         10.76567890      11.86381781       9.11024279
X          2.13030087      16.14145494       2.73703798
X          5.84302642       8.21629773       9.00489921
X          9.32764510       6.88389106      13.36034226
X          8.65673528      14.88046972      12.88781588
X          9.46652711       0.85510382       6.52636521
X          0.46795113      13.33741891       3.37973886
X         11.29536513      10.81427981      14.35502660
X          4.97208103      16.18006112       5.03371495
X          7.45734534      -0.09742242      13.67548415
X          3.45597269       5.53335487       6.13586848
X          3.86787896       6.73226668      10.63222382
X          7.98390865       5.23414958       8.61609492
X          6.63960582       2.14340618      11.73473119
X          4.51272583      12.63998716      13.04806882
X         10.38442035       0.44337752       9.38698035
X          9.94796757       0.20290055      14.53023259
X         10.20930980      12.86361331      12.87236262
X          5.03265337      10.46866909       4.07909392
X          5.10754327      11.42189246       8.97799922
X          9.47023176       5.10400710      12.05330243
X          6.77505233       4.63603107       2.46867083
X          6.40319960      13.97170470       8.70491555
X          4.57107563       1.45695952       7.04185052
X          3.37014206       1.26519354       4.75661878
X          9.51678301      14.41661962      14.49775413
X          8.44439995       7.77115045      11.13998925
X          6.03399324       3.51290383       9.24339141
X          1.24426921      12.32921409       6.91834723
X          6.90441543       7.55570431       7.12480487
X          7.63302704       2.39617038       1.75467270
X         10.39321609       8.41163530       4.69222776
X          2.31330542       2.68295074       1.96410460
X          7.13897583       7.53537228       6.92797706
Fe         1.23154190       3.20532500       2.43158770
Fe         4.98494310       1.31597350       4.76901700
Fe         1.28569670       3.32097870       7.70196270
Fe         4.96037560       1.86772260      10.36896010
Fe         1.26526550       4.11754020      12.34112600
Fe         3.87060540       2.30731500       0.42055670
Fe         1.95296580       9.07526980       1.81916280
Fe         4.05997610       6.32912710       4.78077530
Fe         1.66492050       8.60092780       7.72272520
Fe         4.67719630       7.41131090       9.57631720
Fe         1.52702070       9.86159020      12.36714930
Fe         4.70818090       7.15467080      14.51077620
Fe         1.33026350      14.22029150       1.59439610
Fe         4.35552330      11.72662900       4.84911260
Fe         2.57184750      14.32127480       7.31430930
Fe         4.69801890      12.71032530       9.55857730
Fe         2.41961830      15.00401220      11.70133290
Fe         6.25807990      12.32511480      14.15324090
Fe         6.63567330       3.24257430       2.64755030
Fe         9.91651720       1.50851060       4.57589430
Fe         6.51178080       2.16965530       7.62726300
Fe         9.51021540       1.56641290       9.96471210
Fe         7.69323710       3.66532750      12.18190850
Fe         9.78136230       2.23327410      14.54538040
Fe         7.68659240       8.85602330       2.27048100
Fe         9.62887970       7.00879840       5.49296280
Fe         7.41433190       8.34750700       7.37099200
Fe         9.39344510       8.23394870      10.21410940
Fe         7.97035630      10.83922480      11.99333290
Fe        10.45191450       7.43990040      15.03281740
Fe         6.05517340      13.88256030       1.94448240
Fe        10.21123250      12.03588820       4.84485580
Fe         7.48614690      13.87328920       7.48496050
Fe        10.77718570      12.65100130       7.99792710
Fe         8.23417360      15.27332200      14.25363800
Fe         9.94769910      12.35681420      14.11558860
O          1.86450520       3.83767650       3.99618570
O          0.84658900       1.52237380       3.11183530
O          2.77043150       2.78494810       1.82644370
O          5.03855190       3.11033270       4.55071940
O          0.73313800      15.94672090       4.68728440
O          1.16599800       5.00889360       1.79150820
O          0.16405920       2.97705950       1.04568770
O          3.18115290       1.31450800       4.49848050
O         10.56542250       2.94275410       9.35149360
O          2.14293800       1.81039650       7.14519480
O          4.81230170       1.69187700       6.81797960
O          5.93586350       3.12880190       9.13682870
O         10.74671410       0.37088140       9.46982410
O          2.23768370       4.75759720       8.41415280
O          0.51492610       4.17376720       6.27725810
O          3.58914030       1.89713890       9.22479080
O          2.00961680       4.43219240      13.93912700
O          1.57031800       2.29101190      12.43206800
O          4.02331910       2.77601390      11.58255230
O          4.75644440       3.75815740      14.00491120
O         10.27253460       0.41535910      14.63486190
O          1.58384890       5.81129460      11.82152280
O         11.31750970       3.70301280      11.47323510
O          3.53961240       1.46954480      13.96845560
O          2.23312390       9.18839120       3.59354890
O          0.95203500       7.55813760       1.95981310
O          3.35593100       7.94031210       1.25817310
O          4.52614360       8.03936960       4.97694280
O          0.38974370       5.93801780       4.15945310
O          3.14340370      10.32490470       1.40785290
O          0.53265790      10.18797850       1.45386790
O          2.90251740       6.36740770       3.41549960
O         10.95431770       9.06338590       9.39663000
O          1.08354480       6.98335420       7.22242830
O          3.18526750       5.60540490       6.14934730
O          4.38233900       9.04598260      10.27099550
O         10.15485970       5.42022640       9.44745200
O          2.45611310      10.09863650       8.39479520
O          1.37866430       9.32811200       6.09749140
O          3.16297840       7.39703300       8.26138670
O          0.99204380       8.91292380      13.90319580
O          2.11199850       8.39008560      11.60427360
O          3.95001450       6.60068650      10.98342380
O          5.84032660       8.03224570      13.53297070
O         11.50854450       6.05536650      15.06411350
O          2.95339080      10.85423600      13.03638450
O          1.19802600      10.69489480      10.82428610
O          3.31157460       6.91996380      13.51577620
O          0.65510440      13.65450540       3.31860520
O          1.99225410      12.61595940       1.28442860
O          4.77753220      12.30355350       1.30067830
O          4.68587780      13.30370960       5.62648440
O          0.64987690      11.03666870       4.19305720
O          2.32865180      15.83755030       2.65277960
O         -0.04166910      15.23294500       1.01991620
O          3.37201120      12.21421930       3.45599050
O          0.68427940      14.50242320       7.87193820
O          1.34472980      11.95848900       6.74564690
O          3.75773810      10.87439220       6.27985180
O          4.10075490      14.36220000      10.34403770
O         10.88750500      11.83626440       9.56004950
O          3.31526190      15.88271450       7.77900450
O          2.30232990      14.13113130       5.51176790
O          3.26564380      12.71481650       8.20554110
O          1.30505930      15.58026260      13.02572550
O          2.37513120      13.31005780      12.23175420
O          4.09274890      11.76127470      10.90010520
O          2.57153370      14.91787210       0.44020750
O         11.18570330      10.91915350      13.96420570
O          3.45709180       0.34108920      11.62084940
O          1.31021120      15.21697530      10.26731990
O          4.83001540      12.89593850      13.17418420
O          7.46291130       3.57252190       4.20256760
O          6.27684170       1.37421880       3.20846840
O          7.94803540       2.09772530       1.56133370
O         10.26791470       3.35688970       4.51628190
O          4.87104120      15.84646110       4.83421090
O          6.99069020       4.93403730       2.20983250
O          5.38707870       3.27842270       1.24076240
O          8.78167590       0.50331430       3.54709740
O          7.79015800       4.92762180       8.78172310
O          7.18289450       1.02729170       6.40306470
O          9.80946690       0.98771650       6.32645400
O          8.73920010       3.12688010      10.68730600
O          5.64816660       0.42592620       9.36758990
O          9.42367710       5.78253190       6.81318560
O          6.64703540       3.74794330       6.69137440
O          8.23166730       1.58591350       8.45834610
O          7.29236650       4.53466580      13.69776820
O          6.43392220       1.80192500      11.66499360
O          8.69893670       0.53116180      11.13611680
O         10.58512590       3.82846870      14.36308430
O          4.47814040       0.77611740       1.10841910
O          9.27619170       5.09548780      11.83872240
O          6.56371680       4.61581940      11.15445780
O          8.72893330       2.46143080      13.17044010
O          6.75257780       8.26249860       3.64683960
O          8.45658120       7.10263790       1.89119360
O          9.53273110       4.74848610       2.18152990
O         10.63700810       8.33141590       4.74653530
O          5.66906390       5.55026160       4.83121940
O          8.06102780      10.41778080       3.09770180
O          6.32993320       9.07393940       1.03974740
O          8.52065340       6.12684690       4.28037400
O          6.10170760       8.52712720       8.79347280
O          6.79970080       6.90591790       6.88941130
O          8.86684010       8.35737060       6.32691420
O          9.46983740      10.07947140      10.99888240
O          5.36121520       5.82563160       9.03983480
O          8.05813120      10.05005760       8.14874990
O          6.52717240       9.38395540       6.16955210
O          8.66076000       7.46860040       8.66900300
O          8.06471060       9.43235140      13.12368300
O          8.15001990       7.43643430      11.22941630
O         10.51924950       7.45541730      11.42453550
O          9.01937730       9.22029350       0.99446480
O          4.91289300       5.93147290       0.71508980
O          7.98503030      12.44658240      11.13180140
O          6.69930290      10.11498990      10.96607530
O          9.22493350       6.98282700      13.75499850
O          6.39908830      13.85805030       3.69718550
O          7.34651200      12.66866130       1.65912820
O          9.59415920      11.68627920       1.34468560
O         10.56131680      13.43166120       6.24838420
O          5.32690420      10.44789450       4.12051480
O          7.16751820      15.70595600       1.49807050
O          4.57899380      14.78327820       2.24864060
O          8.98695290      12.74783510       3.77072100
O          6.08123960      14.04018800       8.98800890
O          6.91959510      12.28780460       6.81887380
O          9.21463460      11.07295040       5.95378580
O          9.69355870      14.31374320      10.34001740
O          5.46221070      11.24300290       8.88608770
O          8.45134280      15.34448190       7.86318660
O          6.80635250      14.76102880       6.12330560
O          8.89329340      12.61836820       8.07080320
O          6.79658060      14.01727330      14.64484370
O          8.46527500      14.69628080      12.59779830
O         10.29084170      12.79019210      12.42393840
O          9.86233050      14.21426760      14.65426310
O          5.89129330      10.62869880      13.79936880
O          7.43571640       0.29714000      13.60139900
O          6.25676670      15.41663910      11.39424410
O          8.14978920      11.90453710      13.63582930
Si         0.46706540       4.34861820       4.71834370
Si         1.96310230       0.55937950       3.81761420
Si        10.06955110       4.19849960      10.54947520
Si         3.51115130       1.20364580       7.72721060
Si        10.80399260       4.48126540       1.13080130
Si         3.07206070       1.72723140      12.42617630
Si         0.92795890       9.46187300       4.55715790
Si         1.39130130       6.27640280       2.85093910
Si        10.93972040      10.42890330      10.35882980
Si         2.44973110       6.07233640       7.53159240
Si        10.38902660      10.15856880       0.86038030
Si         2.72491870       6.94039840      11.98537770
Si         0.90136550      14.34076590       4.79131720
Si         3.32275330      11.85564920       1.87616610
Si        11.00238000      15.15152720       9.86909700
Si         2.72597060      11.36254240       7.42560520
Si        11.04619450      15.40349390      14.79863810
Si         3.57826370      12.20785510      12.40013980
Si         6.22796920       4.07347140       5.19290930
Si         7.63575620       0.72910570       2.45609600
Si         6.38870850       4.68465640       9.52202840
Si         8.56268190       0.54360300       7.20820410
Si         6.05550740       4.47682210      14.71793680
Si         7.29143390       0.42589650      11.95596330
Si         5.80623570       9.01095200       4.75650500
Si         8.38063180       5.69315610       2.74997490
Si         5.72079400       9.85492580       9.72892080
Si         9.02034860       5.87541670       8.36505820
Si         6.77308060       9.27822090      14.11070100
Si         9.28272080       6.68581870      12.19786960
Si         5.66007270      14.44594870       5.01848240
Si         8.42562280      11.88047330       2.53287750
Si         5.48046610      15.22067490       9.98866680
Si         8.19234500      11.32450000       7.21542010
Si         3.52117900      15.71509470       1.50071850
Si         9.07755210      13.55435560      11.60725210
