   936
 Wannier centres, written by Wannier90 on16Jan2025 at 09:17:46 
X          6.84045384       6.91720251       6.56894644
X          6.51310394       6.94848022       7.01862006
X          2.13703129       3.89216912       3.97270195
X          8.01385914       7.68365974      11.28650991
X          4.16049562       9.13148430      10.12990618
X          7.72572072       3.67586536       4.11872287
X          4.52364510       3.91277820      14.04055350
X          8.31373999       9.32297322      13.02664088
X          6.66944969      12.25958880       6.94457763
X          2.55394460      14.77554074       0.19355924
X          4.22981772       2.90112831      11.72297786
X          2.82379654       2.51955242       2.00991959
X         10.50032819      12.97623007      12.49374704
X         10.40584080       4.04866751      14.28866014
X          3.28729944       7.59749808       1.21270604
X          8.88216682      12.97568187       3.82267337
X         10.56862513       7.68391891      11.61126434
X          7.73382163      12.46542274      10.99856320
X          5.61081879      10.59407532      13.83343212
X          9.24321994      10.79728793       5.86970788
X          2.65652328       9.98308201       8.55392181
X          2.50438115       9.23551761       3.61802365
X          1.02668351       7.03284245       6.93087322
X          4.77151848       3.21852220       4.60915032
X          6.75603127       5.07097917       2.32706391
X          5.77817248       7.85020737      13.33706562
X          5.26858738      11.18374083       8.66776413
X          0.62369117       3.68873854      10.66803409
X          6.73118735       3.91309013       6.87498015
X          4.57946481      13.33895097       5.89884478
X          0.51878334      10.43511387       1.60147561
X          2.24120341       4.44588222      13.90981451
X          1.41269405      10.84921603      10.75299420
X          3.81409376      11.70595063      10.82635262
X          2.30992143      13.86932559       5.38055299
X          5.14343620       5.91907324       0.88661257
X          6.35152102       4.68011997      11.33352239
X         10.07894975       3.54329730       4.45358762
X          6.90233738       0.94483305       6.29606926
X          3.66107255       1.20639332      13.92712025
X          1.18847451      11.78655542       6.58084226
X          3.52493271       2.18550589       9.23483916
X          2.22964076      13.32446180      12.49812125
X          2.16646594       8.46816676      11.32706892
X          1.36210939       2.15778823      12.55642253
X          3.73480642      10.60535298       6.18060243
X          0.70126761       6.47026055      14.22576055
X         10.02004090       1.03862575       6.08905110
X          7.62153154       0.51757875      13.70383975
X          5.61371534       0.48788884       9.07268193
X          6.57616336      14.23381965      14.56333875
X         10.65169241      15.12220593       1.87564078
X          4.73957314       0.81703017       1.05014574
X          2.62596372       2.73032844       1.50554455
X          8.89289540       0.33655044      11.21719044
X          8.71550147      15.23114704       7.83134976
X          0.69993267       7.61467139       1.83441956
X          8.92644360       2.33050967      12.94804240
X          3.17124451      12.15612647       3.64937927
X          7.96498446      10.41638493       3.36118403
X          3.24238467      10.17636354       1.18792969
X          7.48408357       4.72765908      13.67111711
X          6.57103371       8.05921358       3.51050721
X          2.08242003       4.45002831       8.40718085
X          9.56060960       6.94906424      13.89277040
X         10.98946960       0.52791232       9.42231884
X          3.32730390       5.37624372       6.25745833
X          5.24293936      10.25597662       3.90382904
X          6.64465655      13.99690844       3.71549586
X          3.85202854       6.34086942      10.91543066
X          8.16707227       1.49842879       8.74309936
X          0.89015195      11.14588410       4.30925947
X          9.55512506       5.58206918       6.66095541
X          5.70761456       5.70271740       4.58655516
X          3.03269597       1.49734629       4.64897431
X         11.06794705      11.99725951       9.71611450
X          0.08904503       2.69689144       0.95082704
X         10.32208491      13.59399637       6.25388573
X          2.06570016       1.52717739       7.20283888
X          1.72682694      12.56836433       1.19055908
X          4.70053263      13.12360040      13.29017283
X          8.44501987       6.34859080       4.47279474
X          4.95021914      12.44049958       1.50863909
X          6.64487443       9.65604524       6.22681508
X          6.55014614       8.94679772       1.27500258
X          7.72667462       2.27426788       1.77075895
X          4.57697485      14.89068212       2.51700650
X          0.56467129       4.00247413       6.55567941
X          8.79915000      12.53774558       8.32751235
X          6.85509824      15.05054358       6.17575408
X          0.54873809      16.06080705       4.46568065
X          3.36887724       7.48426130       8.08424475
X          1.14636184       9.00852388      14.14594508
X          9.03374363       4.92929155      11.92915586
X          6.56735863       2.09593436      11.72371036
X          6.30644810      15.19956832      11.54291168
X         10.44355893       3.03448339       9.10686935
X          2.99804509      10.70627916      13.20641818
X          7.92139714       9.67204879       7.92019990
X         10.35515663       8.05225102       4.99734639
X          4.44083458       7.91744869       5.24135426
X          1.35342295       5.98410907      11.78184923
X          0.86261664       1.30341158       2.90715613
X          1.59117018      15.12494947      10.45808051
X          9.02326875       0.38005830       3.67655818
X          3.21059965       6.86612889      13.78423110
X          8.50364219       2.32417369      13.37668982
X          7.00177369      15.45019641       1.57823910
X          3.14842818       6.21174839       3.33204755
X          8.96123681       9.43167727       0.77084167
X          3.84951500      14.37010111      10.64279685
X          0.62748030      14.67973309       7.66068599
X          7.42671296      12.66287186       1.36800869
X          8.76014621       8.48834895       6.04427118
X          6.25966340      13.99577972       8.71973321
X          9.93962285       5.65940838       9.52899759
X          5.65647209       5.86980583       8.91601764
X          8.62098267       3.26122471      10.45949052
X          5.71016470       2.92864052       9.29578746
X          3.57859739      15.91785760       7.91867114
X          3.46536242       0.45891334      11.34344066
X          3.57337201      12.71742829       8.36415329
X          8.24520093      11.69631893      13.84832839
X          6.12478737       1.26694848       2.98387159
X          6.58845360       9.84828281      11.07096921
X          4.86375860       1.57799617       6.42968967
X          9.21943152      10.24806543      11.18094536
X         11.34759291      10.83549745      13.64296881
X          8.30637413      14.89687884      12.41129351
X          0.34841496       8.98457747       8.64433132
X          9.77674796      11.88819994       1.41635736
X          4.79151009      15.69058942       4.57679327
X         10.97526896       5.99626645       4.89947613
X          9.88931363      14.21156159      14.95580973
X          1.48250843       9.61947057       6.10340672
X          8.71604513       7.12344460       1.58993648
X          1.64292413      15.38294022      12.74006286
X          6.34271062       8.44094083       8.43486595
X          1.43807277       5.12315623       1.72427227
X          0.40130978      13.30913453       3.43790647
X          2.10513087      15.63851192       2.51061904
X          5.01417041       3.01897055       1.12676226
X          7.15037471      13.99171492      14.56511300
X          9.59383669      14.18630469      10.13521389
X          8.94352767       7.40015858       8.51546378
X         10.14731442       0.72689985      14.52738419
X          8.11151721      11.60740142      13.16727261
X          9.28794249       4.58078354       2.17145991
X         10.88487729       2.85224154       9.36481321
X         10.78736320       3.63624459      14.11961989
X          7.91500086       4.67983139       8.75146955
X         10.67238999       7.33216222      11.21665482
X          0.86489360       8.58285785      13.82358366
X          7.03043109       4.87130290       1.90504801
X          3.04692492       8.19328202       1.12357937
X          4.29761893      11.53003333      10.93459998
X         10.78918562       5.93397320       0.79058385
X          5.55037541       3.30934412       0.95065289
X          1.01248519      14.44033326       7.91344887
X          7.01365390      12.31387108       6.53008190
X          8.62232408       6.96807310       2.16724286
X         10.98120942      10.67303166      14.10451262
X          8.35589015       7.65660207       8.37328492
X          3.18216559      15.57607167       7.68325899
X          4.91667778      12.27013841       0.92192633
X          9.39726441       9.78428522      10.80392724
X          4.56898304       1.44467975       7.03377812
X          0.56799846      11.04884094       3.88859930
X          4.73461659      15.72556460       5.08699428
X          4.12784463       6.65891408      11.21667280
X          1.14043819      15.36367216      13.32726386
X          7.01918692      10.29988978      11.17627401
X          6.89910292      14.62713790       5.82875462
X          2.39971155      14.18290264       5.82824962
X          3.18274997      12.95898918       7.97081791
X          8.47097556       3.16275399      11.09129168
X          6.07099376       1.35964465       3.61320868
X          8.40051451       1.80665801       8.38555715
X          3.28706755       1.49614385      14.09548404
X          1.09380074      14.96102023      10.11551932
X          0.56428827       1.57884867       3.28144197
X          4.86529021      12.90670458      12.86270164
X          7.40040526       1.21085999       6.27027935
X          8.66292759       9.15835424       1.37981195
X         10.57643991       0.26492731      14.45815626
X          2.47779232      15.70277955       2.84580766
X         10.20475238       3.02116448       4.59375465
X          1.42271287       9.09927311       6.44549204
X          1.81217385       5.79731222      11.59340408
X          6.36435108      13.57739767       3.80503186
X          7.84194051       2.03816138       1.27040293
X          3.74582944       2.86373177      11.46016326
X          9.45852775      14.45799392      14.52638180
X         11.01717374       3.54631171      11.53614060
X          2.31233235      13.09115633      12.01864619
X          1.53011275      12.18213734       6.63526252
X          8.09038282       7.19645254      11.04662491
X          8.44518548       0.38974956       3.56102445
X          5.96143379       8.92121631       8.84298660
X          7.34487703       3.31030681       4.35791703
X          8.80201569      14.66241359      12.50867978
X          2.52379396       6.19442737       3.37008347
X         10.97476994       8.23992421       4.81387655
X          3.40495737       5.81877962       5.74341070
X          9.66954486       1.22180504       6.51988863
X          5.50832798      10.69304332       4.10847675
X          2.92980830       3.06125892       1.86541788
X          5.19080356       5.63840990       8.90832117
X          9.17804391       7.28365164      13.67652417
X         10.59484492      11.79303822       9.67733541
X          4.46753844      14.55733788      10.39161714
X          6.91630476       4.65443670      13.73884419
X          3.58820640       1.27423117       4.54525074
X          0.89524744       4.98266946       1.50814363
X          4.74203617       6.29576835       0.49810653
X          3.19869482       7.40070731       8.56424028
X          6.21091511       3.17813048       9.30487110
X          7.23447433      15.69967217       1.00603674
X          9.28779310      12.50118009       4.10374963
X          1.96155263       2.08328965       7.08594105
X          0.88042244      10.86101830      10.83856752
X          7.26889997      12.36757289       1.79786037
X          6.11958261      10.36125083      14.02672964
X          6.70076225       1.54494192      11.53398926
X          1.89846914       8.80799840      11.88599489
X         10.89456769      13.66396187       6.10982153
X          4.39339302       8.27137099       4.80144231
X          4.51900188      12.91284123       5.35010560
X          1.99497648       8.95609030       3.76746912
X          2.21449419      10.30897784       8.47493750
X          0.26296519       3.29136103       0.79546133
X          0.90594738       6.95530690       7.46251811
X          3.40790518      12.49431863       3.28758519
X          9.35948912      12.69470758       8.03133915
X          6.17147239       8.08760339      13.73101321
X          9.75497375      11.31087530       1.28831885
X          8.39014113       6.16396000       3.88903011
X          7.97071557       9.58495037      13.46322804
X          3.68968050       0.19474766      11.75911243
X          0.20483043      10.02955047       1.40418724
X          0.72855987       4.08572543       5.97313713
X         10.62623990       0.20437435       9.24219896
X          8.55439689       0.73239855      11.42095725
X          6.61893773       3.37456171       6.75682835
X         10.29559465      12.50600976      12.29447253
X          6.73931857       4.84432126      10.97881514
X          4.86677821       3.61708209      13.78044755
X          9.43740764       4.96726189      11.49054787
X          9.33650879      11.15110051       6.28299303
X          6.50016589       8.55036004       3.86242702
X          9.11994262       5.72166054       7.01667090
X          3.32624262      10.47274698       1.69216914
X          5.94859750       0.31912413       9.49072253
X          6.17779000       9.30502049       6.16747312
X          0.36201088      15.07606168       1.12848747
X          6.47153909       9.05430758       0.65153061
X          3.40288803       1.65802217       9.28824810
X          5.73828872      13.75375521       9.08930871
X          0.94177833      13.63236087       3.53696679
X          5.55566918       5.12821516       4.75130007
X          5.19952884       3.10947288       4.24628209
X          7.16273656       0.25551395      13.65562498
X          4.73551259       9.27283204      10.11237583
X          7.99989503       5.22038136       8.61145015
X          3.79292497      10.95022220       6.63676055
X          1.66212790       4.36541541      14.20476650
X         11.04758397       9.35423447       9.69413322
X          9.37152557       5.10066949       2.09397903
X          4.31913743      14.61165646       2.15339142
X          2.99834616      11.24888680      13.09580538
X          2.84971587       5.57983243       6.13995381
X          4.28956437       0.42235248       0.97409344
X          0.37516981       5.53259351       4.25502817
X          9.09171440       8.39640048       6.56422428
X          3.15770901      10.91335035      12.69731514
X          7.93847630      10.74326993       2.89639693
X          3.11003484       7.08002141      13.19551522
X          5.74366266      11.33742639       8.86643232
X          1.18070764       7.30589591       1.82853685
X          8.29222730      12.47888210      10.98583298
X          2.51655982      15.26400004       0.51660636
X          1.69578878       2.19204486      12.13310894
X          8.34350725      15.47370959       8.11294504
X          2.02151996       5.06144015       8.31724151
X          1.08911377      16.07352165       4.52609795
X          9.80544426      14.04818943      10.59766497
X          2.30948118      12.59721952       1.11621768
X          1.60187494       4.14507145       4.02185122
X          3.71991165       1.76831300       8.82925365
X          6.04293533      10.57266278      13.51173174
X          1.90267389       8.12700766      11.67090335
X          7.79518149      10.32631506       8.09324520
X          1.92863681       2.21079719      12.61687462
X          8.37326586       0.40672189      11.05704134
X         10.68532493       8.66912767       4.93637479
X          5.17809340       6.23583664       9.22591541
X          2.89686769      14.90618026       0.68235552
X          8.39609314      15.68216411       7.58609729
X          9.98355524       5.34605548       9.10752855
X          2.50029945       1.77747366       7.03453998
X          5.08781178       0.08421744       4.81988872
X          9.60021998       5.90968058       7.12205585
X          7.46461663       0.29889126      13.15414969
X          5.47614447      10.89043087       9.15286869
X          8.40003433      10.51411233       3.02956900
X          7.67907909      12.68335513       1.89524712
X          8.83711112       6.12567057       4.19663217
X          6.09119354       2.90961169       8.70227192
X          5.89841018      14.40728071       9.05500935
X         10.57891728      13.16526658       6.02656377
X          3.72690055       7.14836940      13.71832709
X          4.44321935       8.97854216      10.55510880
X          8.40229702      14.84222769      13.12472297
X          5.95736544      15.54097761      11.37761849
X          3.03728135       7.00459949       8.11673339
X          2.60969626      15.94201805       2.38537903
X          3.78160058      12.07680565       3.75914630
X          5.74045587       8.37424160      13.55374638
X          6.55448416       9.25939286       5.77553821
X          0.51835385      13.93677547       3.53659487
X         10.82723983       0.04113592       9.72090671
X          1.06576108      10.47309357      10.51560554
X          5.09303202       3.95971150      14.20434910
X          1.68135848       3.66007167       4.23741646
X          6.46078176       4.42286406      10.80751733
X          3.48923948       1.64166772      13.57849507
X          2.77425124      13.19463091      12.30685045
X          4.47914186      15.10076560       1.99499425
X          8.24975711       2.17749329       1.54507274
X          6.25637548       8.54931592       9.07128384
X          8.36653490       1.26877832       8.20385699
X          5.91556578       5.38358896       5.07358268
X          7.79413840       5.00398138       9.10126065
X          1.84863525       6.05030748      12.07736854
X          8.08296948      12.74060129      11.40443903
X          3.99261052      11.16214892       5.95137216
X          5.33625928       3.27861552       4.80917813
X          1.05079832       9.35145969       5.93390452
X          0.55319309      14.71658318       8.21550691
X         -0.05084997      15.51790837       0.74171163
X          9.94959101      13.00588025      12.25234976
X         11.38078777      10.93348523      14.28875308
X          2.44361032       4.90555326       8.56829543
X          5.01426525       5.66573986       0.41092489
X          8.40191379       7.27144178      11.55266708
X          9.73894825       9.99752937      11.16386881
X          4.04943323      11.97571641      11.25466252
X          4.71157110      13.66550978       5.41047244
X          3.86647550       2.46046254      11.82631518
X          0.51899357      10.29387439       1.06937388
X          7.02788116      16.06056581       1.63852440
X          6.13012072      14.08319783       3.95445758
X          6.98043494      14.44730557       6.52101182
X         11.30835568       5.69837552      14.92438430
X          5.46289302       0.07472164       9.48741738
X          1.60951903      11.75553177       7.00920848
X          7.26218831       4.33224305      14.00339023
X          6.96500571       8.21259781       3.85041434
X          4.44370526      12.45581105       1.30153381
X          3.59364735       6.79845795      11.15492857
X          6.29606206       9.38092823       1.00767988
X          0.62823859      10.62662965       4.33650462
X         11.01947422      11.44159941       9.60392298
X          4.63872475       1.94330772       6.85739686
X          4.92752901       8.19592705       4.96679886
X          9.45193796       0.88870161       6.21772473
X          2.80549351       6.66257667       3.26844993
X          1.07079619      15.37420154      10.41061500
X         10.17110093      14.48106238      14.55375977
X          0.57342826       4.47835318       6.24414587
X          9.50219191       5.12624678      12.02847684
X          7.23379739      12.01581067       6.98058684
X         10.86008301       3.06841176       1.84286504
X          6.05304676       1.77241016      11.35788249
X          8.57640630       7.08549472       8.72305280
X          8.75558121       0.53133458       3.17226918
X          4.35193685       0.70067723       1.43475092
X          3.20803500      12.35426550       7.99007249
X          1.43934814       6.72906765       7.28184467
X         10.77319081       3.87194757      14.74005643
X          0.65008986       3.98915897      11.27957631
X          8.71838979      12.46462628       3.63372743
X          7.01579169       6.72693272       7.05725030
X          3.10600452      16.08748339       7.96243266
X          5.27127839       3.64707255       1.19448149
X          4.50825143      12.61616475      13.13183051
X          2.31755812      14.36361321       5.28793111
X          0.64384286       6.01937486       4.28473944
X          6.80556939       3.77766873       6.31888387
X          1.94849894       9.50133402       3.70719079
X          7.35168342       5.09125928       2.39150454
X          2.97428064      10.71336804       1.34051983
X          9.37157853       9.37780925       1.12802601
X          9.47095029      14.44289577      10.56381723
X          1.02127079       1.99684379       2.90576994
X          9.08189845       3.36262225      10.73841584
X          8.85068936      11.19444781       6.03770142
X          2.97700193       0.97235235       4.52522362
X          0.96604114       7.35807641       2.31720796
X          1.03109230      15.62200614      12.87180576
X          7.68244834       9.21848506      13.16370055
X          3.30810799       0.66439384      11.87893873
X          6.27363208      15.36555810      11.00532655
X          0.77192547      15.53855322       4.64788996
X          6.59417785      13.40433238      14.45404611
X         10.25234040       7.18744514      11.64172156
X          2.60372017      10.35393731       8.07823717
X          0.68209413       9.21367417      13.99411456
X          7.18658740       3.84946068       4.38608930
X          5.46811001      10.14918402       4.40651114
X         10.60328564       3.36142576       4.24621769
X          9.83833518       4.67530604       1.93016295
X         10.04632085       5.09893438       9.69665670
X         10.07870906       0.14562426      14.61186975
X         10.84003035       9.25986644       9.19754151
X          8.80386512      12.28106655       7.82982385
X          6.73460929      10.03587275      10.58985771
X          7.43515736       0.78165064       6.64284591
X         10.45937921       3.22833151       9.66962022
X          9.27841206       6.83550388      13.35669382
X          8.24278508       6.78566294       1.88300985
X          8.28439414       8.26448617       6.71244970
X          4.03366548      14.50759748      10.08248309
X          7.05932432       7.50919997       7.06977646
X          2.14125352      12.43366558       1.61114170
X          8.42149600       2.94371174      12.87378418
X          8.27297547      10.27955863       7.82576942
X          1.32035645      15.40835188       9.96755361
X          9.69517924      10.30186894      10.75039414
X          7.92242786       1.71836045       1.75172190
X          9.27525966      11.67798107       1.61576142
X          6.80835826       8.98948073       6.51664414
X          6.64580086       1.18197346       3.14918460
X          6.41639492      10.30864378      10.90193785
X          1.87000979      13.21699808       1.44343708
X          2.35066052       1.84919249       7.54889461
X          8.72972830       0.83833559       3.60411174
X          3.34096739      16.13893727       7.51126503
X          1.88972330      14.15557186       5.51171543
X          6.32378137       3.83980260       6.52078943
X          0.49028179      14.22524982       7.86965429
X          3.07733484       1.34042469       4.15855841
X          3.03558493      12.67924996       8.38459074
X          9.19154242       5.48980659      11.80820199
X          6.03760341       8.95236027       0.94138372
X         10.49083272       3.52715549       4.82966522
X          0.54957610       3.03368456       1.46131890
X         10.07310180       7.69299057      11.06295557
X          9.79156446       0.72844161       6.56162820
X          3.18195343       5.87341896       6.44458660
X          4.61483597      11.98099747       1.42848209
X          8.01756000      11.96878406      11.43822659
X          1.55447172       2.75896775      12.43187952
X          2.21270053       9.68318091       8.12757344
X          6.21237361      14.05721422       9.27175977
X          6.91734709       4.33377114       2.42989840
X          1.70144056       4.29464080      13.38206651
X          2.15991532       9.09646434       2.98979253
X          3.65182154       8.01266743       1.32109347
X          8.41735821      12.16990160      13.61020170
X          4.20367924       1.18825019       0.92131029
X          6.42393257      14.67101132       6.03994242
X          2.42093670       4.87074210       8.01872655
X          6.39216541       1.57828504      11.95388487
X          1.28391010       8.00635608       1.98639515
X          1.25452416      10.40435611      11.23922809
X          7.11631924       3.47955629       3.63574919
X          4.27701328      13.85709027      10.15535394
X         11.11897287       4.00809295       6.70856046
X          1.51997753       9.18250502       5.76543804
X          1.06950975       5.26083424       2.09609202
X          5.03362020      13.25580638       5.57973959
X          2.88711021      16.13370253      11.65223353
X          4.52628606       8.44214413       9.99325961
X         -0.14609680      14.99690022       0.76771331
X          9.01936483       6.83308484      13.84402866
X          7.15870948      12.83433241       7.05749085
X          5.16347861      12.72233733      13.38272068
X         10.10076584      12.61968581      13.09067728
X          4.51063777       7.59869111       4.76475801
X          2.49338520      10.91903188      12.91097695
X          8.87534756       0.85216536      10.78087060
X         10.39243796       0.38939764      14.94151425
X         10.42301805       5.45274321       9.45548904
X          7.46425014      15.74765273       1.64073570
X          1.21176399       4.52995124       1.99504927
X          0.73301308      16.00977991       4.94170451
X          4.93329405      10.75191550       4.37807992
X          7.74090637      12.04475319      13.72574569
X          0.84892771       9.90594698       1.48375045
X         10.68620390      13.22392859       6.72736603
X          8.70208147       7.72655184      10.84384783
X          1.63573148       3.62089408       3.48038614
X          5.85890841       3.51680241       9.10508619
X         10.22282493       2.46546763       9.54856097
X         10.58439053       8.37161672       4.47402211
X          5.18895155       1.73915103       7.01484676
X          3.36403712      11.96708475       3.11448874
X          7.94970703       9.98498652       2.82319652
X          4.26325875       2.41952068      11.18944536
X          2.14127178      14.65031386       0.88508546
X          6.99562436      13.03028204       1.78551563
X          2.39176129       8.24001666      11.80923138
X          2.74322652       7.67423110       8.12647359
X          6.38118616       1.84728565       3.10100325
X          4.64854595       5.77976501       0.77636219
X          8.24908439       7.47410396       2.00292709
X          9.20174758       7.66433403       5.95937163
X          7.32622030       4.21647175      13.27039796
X          5.23709540      15.68329159       4.88697687
X          7.75721954       1.69501806       8.18942734
X          9.18133251      12.69278315       3.46712076
X          6.48952490      15.75312543      11.47701935
X          7.42195473       4.93017028       8.74123739
X          1.97818887       3.00507038       2.13887464
X          1.49793806       5.34768844      12.03142137
X          0.92777740      12.22933147       7.02215834
X          4.30383727      12.11449256      10.49614177
X          6.93449838       4.29691075      11.42220823
X          9.60778369       4.82635354       2.46111128
X         10.56436774       8.81942435       9.61522835
X          2.18068135      16.14799742       2.85372122
X          1.36942251      15.85579301      13.18051436
X          9.89831493      13.83435213      14.47293902
X          8.74304238       7.66700997       9.02846470
X          8.62383832      12.94317995       7.88707737
X          4.12030173       6.89778082      10.56777169
X          0.52644588       5.96293549       3.77111116
X          8.21855202      10.04278288       8.37192795
X          3.47171346       6.68244041      13.37821366
X          8.38508233      14.34556328      12.52972519
X          1.14997473       1.38379340       3.37326969
X          3.90237787       1.77798240      14.26322390
X          2.69736246       9.94427295       1.61251783
X          8.43776101       5.82360919       4.29433516
X          5.46762547       0.76131955       9.66190969
X          3.38930056      11.05671131       6.30463175
X          9.13758512       8.84961993       0.83821709
X          9.41887326      11.83235406       0.87703527
X          5.52985783       5.56726695       9.35293555
X          5.02709570      14.54928390       2.10775803
X          6.01423833      13.97038583       0.59436483
X         10.36968344       0.67041410       9.66149320
X         11.15062251       4.01158344      11.25639726
X          4.72354919       3.29869619      14.37585548
X          5.19698492      11.69271307       9.19664581
X          9.50629696      11.42256210       5.58564885
X          1.18871516       9.18609868      13.40263302
X          5.04814472       2.43893996       4.67062917
X         10.01197094      14.55501183      10.27222458
X          6.23209553      13.88602618       3.18958951
X          9.38060099       6.19928665       6.53280338
X          2.40997124      13.86287807      12.02706050
X          5.39347596       7.74290764      13.98880484
X          5.62994791       3.20878196       1.58078243
X          8.11534469      14.94590183       7.70885930
X          3.10699998       6.41286411       3.90341837
X          0.75372320      13.75443838       2.90563303
X          9.20404745       2.52271351      13.72211467
X          5.71974151       8.24051070       8.91436124
X          1.36622932       7.63250576       7.42580228
X          6.92896245       1.52268888       6.95668133
X         10.83537356      11.38486393      13.93977423
X          0.17898061      11.36067667       4.31095249
X          6.05242879      11.16002388      13.94084717
X          8.92234125       2.66932489      10.55364259
X         10.86414331      12.01598064       9.03543108
X          7.55860973      16.08168251      13.76239528
X          7.05632895       8.54719957       3.17767909
X          5.19114861       5.76777736       4.96421190
X          4.10698561       1.83819664       9.63524762
X          7.95420446       9.94368770      12.72655239
X          1.41855447       5.28319764      14.11278105
X          3.68475610       7.51549563       0.42278370
X         10.14333490       3.09697732      14.43773005
X         10.76739935       7.03522781      15.03575816
X          6.60093911       3.24534506       2.67331242
X         10.76123830      12.61228163       7.98342753
X         10.20301879      12.01544985       4.81876709
X          4.73113146      12.71336895       9.58820109
X          1.30137094       3.33171785       7.72467197
X          2.60184284      14.31764546       7.30344809
X          9.89209497       1.52167968       4.57734042
X          1.32330563      14.21052120       1.58202019
X          4.92881549       1.80332853      10.39538909
X          6.06052316      13.89001298       1.94204497
X          6.26426969      12.33711323      14.15828572
X          4.67437306       7.42798309       9.56735283
X          7.93782339      10.85171418      12.00550166
X          7.69408261       3.65319093      12.17054483
X          7.67677230       8.85056514       2.27097409
X          7.50554998      13.86566513       7.46745128
X          6.51086821       2.17522483       7.63471952
X          9.39956967       8.23610420      10.21201338
X          9.78170973       2.23179889      14.54596558
X          1.51506209       9.87471490      12.36645267
X          9.61922085       7.01309741       5.47731291
X          3.87931454       2.30996095       0.42397385
X          4.35564358      11.72691490       4.84975025
X          9.46275538       1.57622246       9.93071973
X          1.26991894       4.11899244      12.34343304
X          2.42240247      15.00252808      11.70043931
X          9.80037457       2.21905540      14.53219879
X          1.67794815       8.60159073       7.70102416
X          4.06027315       6.32788791       4.78256771
X         10.45767008       7.40502295      15.02637369
X          4.70748978       7.15057808      14.50847664
X          7.96494159      10.82993454      12.00203673
X          2.58890203      14.31119930       7.33108307
X          8.20886575      15.21244111      14.25761400
X          5.00939944       1.32198811       4.79370836
X          7.47233287      13.87112055       7.49056126
X          6.05315706      13.87460579       1.94326696
X          4.96546461       1.86643356      10.36779967
X          1.25547753       4.12130185      12.34084491
X          1.65846965       8.60020995       7.72353446
X          7.72750194       8.84990905       2.28672686
X          1.29955378       3.34908070       7.70986984
X          9.93452464       1.50374334       4.57555672
X          4.68740552       7.40393162       9.56971934
X          2.45270225      14.99975053      11.71820080
X          7.67920799       3.66041833      12.18131136
X          6.27496630      12.31619851      14.11447524
X          9.94586663      12.34952172      14.12463495
X          9.51347973       1.56387046       9.95802201
X          6.49954400       2.14166665       7.63183539
X          4.96552112       1.86653116      10.37195305
X          9.40027032       8.20981005      10.21299072
X          4.69447432      12.71646130       9.55572404
X         10.45661815       7.47286414      15.03706097
X          4.04485690       6.33699057       4.75731971
X          9.50422167       1.56500260       9.95685127
X         10.21597802      12.04700196       4.87391148
X          9.92880495       1.48372544       4.57573009
X          8.23496812      15.26582722      14.25238051
X          1.94958149       9.07208135       1.82435802
X          2.55481888      14.32391058       7.33373830
X          1.52725449       9.85933090      12.36853917
X          1.35414240      14.23135668       1.60576642
X          9.96071476      12.37049674      14.11245021
X          3.87083685       2.30742639       0.42735251
X          4.98718019       1.31507310       4.77072457
X          6.63802403       3.24215513       2.64739072
X         10.77737329      12.65213817       7.99847980
X          1.21726924       4.08626295      12.37064802
X          6.64341274       3.24094152       2.64427083
X          1.22798408       3.28647702       7.73847001
X         10.21595656      12.03894063       4.84279152
X          1.22234799       3.21131051       2.40939710
X          7.47568717      13.87144936       7.49563198
X          4.37192667      11.71561744       4.84489552
X          9.77397345       2.23916982      14.55849476
X          1.22862273       3.20564445       2.43123857
X          6.05516813      13.88144845       1.93795847
X          1.54205566       9.87066372      12.36516758
X          9.60774841       7.01970051       5.50530877
X          1.31843275      14.20856488       1.60028267
X          2.42018005      15.00091676      11.69682055
X          1.95029018       9.08243887       1.81643442
X          8.23136688      15.27414612      14.25791837
X          7.41185683       8.34953226       7.36875822
X          7.71886893       3.64787238      12.20401841
X          4.04974362       6.32988677       4.80080850
X          4.67783698       7.40470938       9.57800236
X          4.69123831      12.70396825       9.54764293
X          4.98299531       1.31506689       4.75004276
X          9.93175013      12.34536108      14.10004532
X          4.36524688      11.75342875       4.84739729
X          9.62971333       7.00564293       5.48911502
X         10.76721826      12.67306095       7.99877067
X          3.73906950       2.35757642       0.54788673
X          7.47442778       8.34065057       7.33005754
X          9.91222080       1.50872835       4.58274818
X          7.67281637       8.86223543       2.27106006
X          9.90426963       1.52541573       4.55267244
X          1.29305033       3.29898613       7.69994781
X          7.99838911      10.84562565      11.99313931
X          4.69332326       7.17763580      14.53781276
X          1.64868281       8.59226846       7.74948142
X          2.54142101      14.31255767       7.31119399
X          8.23476988      15.27425852      14.25774719
X          6.27346586      12.32046396      14.17660847
X          3.86139375       2.30469386       0.42148441
X          6.52077505       2.17880959       7.62266925
X         10.47346761       7.45573210      15.00856254
X          9.50413691       1.56619799       9.96828511
X          4.72403902       7.16280807      14.50003798
X          2.40674024      15.00130941      11.70130785
X          4.08010915       6.30426714       4.77365273
X          4.33328483      11.72714935       4.85419851
X          6.25438979      12.32127978      14.15139548
X          6.05180232      13.88186140       1.94426388
X          7.97151333      10.83558014      11.99218490
X          9.37056894       8.25936887      10.18353825
X          1.93973005       9.09046262       1.83499056
X          2.57311221      14.31948770       7.30223589
X         10.44902576       7.43864554      15.04347460
X          7.69368160       3.66146903      12.18331785
X          7.68659063       8.86187256       2.26237152
X          4.69389476      12.71439131       9.56044354
X         10.20773343      12.03398932       4.84618579
X          1.32674128      14.21980115       1.60467311
X          9.74848113       2.25163640      14.51009494
X          4.96259822       1.87912582      10.36503706
X          1.27149345       4.13945078      12.38284501
X          9.93381269      12.35917020      14.12750731
X          4.65837625       7.41939627       9.57803148
X          1.27490375       3.32119764       7.69898014
X          4.98613556       1.31267164       4.76933878
X          7.49086906      13.87902716       7.49016332
X          9.38558465       8.23517002      10.21286418
X          1.23280062       3.20549272       2.43292882
X          1.66679071       8.60879944       7.72295189
X         10.77813267      12.64972031       8.00340852
X          6.50629438       2.16838618       7.62435038
X          6.62981570       3.23752237       2.64345213
X          1.36148611       9.96144011      12.44201341
X          7.40279171       8.34483094       7.37123217
X          9.66139757       7.01318561       5.51648047
X          2.23709334       8.83769858       1.65285865
Fe         1.23154190       3.20532500       2.43158770
Fe         4.98494310       1.31597350       4.76901700
Fe         1.28569670       3.32097870       7.70196270
Fe         4.96037560       1.86772260      10.36896010
Fe         1.26526550       4.11754020      12.34112600
Fe         3.87060540       2.30731500       0.42055670
Fe         1.95296580       9.07526980       1.81916280
Fe         4.05997610       6.32912710       4.78077530
Fe         1.66492050       8.60092780       7.72272520
Fe         4.67719630       7.41131090       9.57631720
Fe         1.52702070       9.86159020      12.36714930
Fe         4.70818090       7.15467080      14.51077620
Fe         1.33026350      14.22029150       1.59439610
Fe         4.35552330      11.72662900       4.84911260
Fe         2.57184750      14.32127480       7.31430930
Fe         4.69801890      12.71032530       9.55857730
Fe         2.41961830      15.00401220      11.70133290
Fe         6.25807990      12.32511480      14.15324090
Fe         6.63567330       3.24257430       2.64755030
Fe         9.91651720       1.50851060       4.57589430
Fe         6.51178080       2.16965530       7.62726300
Fe         9.51021540       1.56641290       9.96471210
Fe         7.69323710       3.66532750      12.18190850
Fe         9.78136230       2.23327410      14.54538040
Fe         7.68659240       8.85602330       2.27048100
Fe         9.62887970       7.00879840       5.49296280
Fe         7.41433190       8.34750700       7.37099200
Fe         9.39344510       8.23394870      10.21410940
Fe         7.97035630      10.83922480      11.99333290
Fe        10.45191450       7.43990040      15.03281740
Fe         6.05517340      13.88256030       1.94448240
Fe        10.21123250      12.03588820       4.84485580
Fe         7.48614690      13.87328920       7.48496050
Fe        10.77718570      12.65100130       7.99792710
Fe         8.23417360      15.27332200      14.25363800
Fe         9.94769910      12.35681420      14.11558860
O          1.86450520       3.83767650       3.99618570
O          0.84658900       1.52237380       3.11183530
O          2.77043150       2.78494810       1.82644370
O          5.03855190       3.11033270       4.55071940
O          0.73313800      15.94672090       4.68728440
O          1.16599800       5.00889360       1.79150820
O          0.16405920       2.97705950       1.04568770
O          3.18115290       1.31450800       4.49848050
O         10.56542250       2.94275410       9.35149360
O          2.14293800       1.81039650       7.14519480
O          4.81230170       1.69187700       6.81797960
O          5.93586350       3.12880190       9.13682870
O         10.74671410       0.37088140       9.46982410
O          2.23768370       4.75759720       8.41415280
O          0.51492610       4.17376720       6.27725810
O          3.58914030       1.89713890       9.22479080
O          2.00961680       4.43219240      13.93912700
O          1.57031800       2.29101190      12.43206800
O          4.02331910       2.77601390      11.58255230
O          4.75644440       3.75815740      14.00491120
O         10.27253460       0.41535910      14.63486190
O          1.58384890       5.81129460      11.82152280
O         11.31750970       3.70301280      11.47323510
O          3.53961240       1.46954480      13.96845560
O          2.23312390       9.18839120       3.59354890
O          0.95203500       7.55813760       1.95981310
O          3.35593100       7.94031210       1.25817310
O          4.52614360       8.03936960       4.97694280
O          0.38974370       5.93801780       4.15945310
O          3.14340370      10.32490470       1.40785290
O          0.53265790      10.18797850       1.45386790
O          2.90251740       6.36740770       3.41549960
O         10.95431770       9.06338590       9.39663000
O          1.08354480       6.98335420       7.22242830
O          3.18526750       5.60540490       6.14934730
O          4.38233900       9.04598260      10.27099550
O         10.15485970       5.42022640       9.44745200
O          2.45611310      10.09863650       8.39479520
O          1.37866430       9.32811200       6.09749140
O          3.16297840       7.39703300       8.26138670
O          0.99204380       8.91292380      13.90319580
O          2.11199850       8.39008560      11.60427360
O          3.95001450       6.60068650      10.98342380
O          5.84032660       8.03224570      13.53297070
O         11.50854450       6.05536650      15.06411350
O          2.95339080      10.85423600      13.03638450
O          1.19802600      10.69489480      10.82428610
O          3.31157460       6.91996380      13.51577620
O          0.65510440      13.65450540       3.31860520
O          1.99225410      12.61595940       1.28442860
O          4.77753220      12.30355350       1.30067830
O          4.68587780      13.30370960       5.62648440
O          0.64987690      11.03666870       4.19305720
O          2.32865180      15.83755030       2.65277960
O         -0.04166910      15.23294500       1.01991620
O          3.37201120      12.21421930       3.45599050
O          0.68427940      14.50242320       7.87193820
O          1.34472980      11.95848900       6.74564690
O          3.75773810      10.87439220       6.27985180
O          4.10075490      14.36220000      10.34403770
O         10.88750500      11.83626440       9.56004950
O          3.31526190      15.88271450       7.77900450
O          2.30232990      14.13113130       5.51176790
O          3.26564380      12.71481650       8.20554110
O          1.30505930      15.58026260      13.02572550
O          2.37513120      13.31005780      12.23175420
O          4.09274890      11.76127470      10.90010520
O          2.57153370      14.91787210       0.44020750
O         11.18570330      10.91915350      13.96420570
O          3.45709180       0.34108920      11.62084940
O          1.31021120      15.21697530      10.26731990
O          4.83001540      12.89593850      13.17418420
O          7.46291130       3.57252190       4.20256760
O          6.27684170       1.37421880       3.20846840
O          7.94803540       2.09772530       1.56133370
O         10.26791470       3.35688970       4.51628190
O          4.87104120      15.84646110       4.83421090
O          6.99069020       4.93403730       2.20983250
O          5.38707870       3.27842270       1.24076240
O          8.78167590       0.50331430       3.54709740
O          7.79015800       4.92762180       8.78172310
O          7.18289450       1.02729170       6.40306470
O          9.80946690       0.98771650       6.32645400
O          8.73920010       3.12688010      10.68730600
O          5.64816660       0.42592620       9.36758990
O          9.42367710       5.78253190       6.81318560
O          6.64703540       3.74794330       6.69137440
O          8.23166730       1.58591350       8.45834610
O          7.29236650       4.53466580      13.69776820
O          6.43392220       1.80192500      11.66499360
O          8.69893670       0.53116180      11.13611680
O         10.58512590       3.82846870      14.36308430
O          4.47814040       0.77611740       1.10841910
O          9.27619170       5.09548780      11.83872240
O          6.56371680       4.61581940      11.15445780
O          8.72893330       2.46143080      13.17044010
O          6.75257780       8.26249860       3.64683960
O          8.45658120       7.10263790       1.89119360
O          9.53273110       4.74848610       2.18152990
O         10.63700810       8.33141590       4.74653530
O          5.66906390       5.55026160       4.83121940
O          8.06102780      10.41778080       3.09770180
O          6.32993320       9.07393940       1.03974740
O          8.52065340       6.12684690       4.28037400
O          6.10170760       8.52712720       8.79347280
O          6.79970080       6.90591790       6.88941130
O          8.86684010       8.35737060       6.32691420
O          9.46983740      10.07947140      10.99888240
O          5.36121520       5.82563160       9.03983480
O          8.05813120      10.05005760       8.14874990
O          6.52717240       9.38395540       6.16955210
O          8.66076000       7.46860040       8.66900300
O          8.06471060       9.43235140      13.12368300
O          8.15001990       7.43643430      11.22941630
O         10.51924950       7.45541730      11.42453550
O          9.01937730       9.22029350       0.99446480
O          4.91289300       5.93147290       0.71508980
O          7.98503030      12.44658240      11.13180140
O          6.69930290      10.11498990      10.96607530
O          9.22493350       6.98282700      13.75499850
O          6.39908830      13.85805030       3.69718550
O          7.34651200      12.66866130       1.65912820
O          9.59415920      11.68627920       1.34468560
O         10.56131680      13.43166120       6.24838420
O          5.32690420      10.44789450       4.12051480
O          7.16751820      15.70595600       1.49807050
O          4.57899380      14.78327820       2.24864060
O          8.98695290      12.74783510       3.77072100
O          6.08123960      14.04018800       8.98800890
O          6.91959510      12.28780460       6.81887380
O          9.21463460      11.07295040       5.95378580
O          9.69355870      14.31374320      10.34001740
O          5.46221070      11.24300290       8.88608770
O          8.45134280      15.34448190       7.86318660
O          6.80635250      14.76102880       6.12330560
O          8.89329340      12.61836820       8.07080320
O          6.79658060      14.01727330      14.64484370
O          8.46527500      14.69628080      12.59779830
O         10.29084170      12.79019210      12.42393840
O          9.86233050      14.21426760      14.65426310
O          5.89129330      10.62869880      13.79936880
O          7.43571640       0.29714000      13.60139900
O          6.25676670      15.41663910      11.39424410
O          8.14978920      11.90453710      13.63582930
Si         0.46706540       4.34861820       4.71834370
Si         1.96310230       0.55937950       3.81761420
Si        10.06955110       4.19849960      10.54947520
Si         3.51115130       1.20364580       7.72721060
Si        10.80399260       4.48126540       1.13080130
Si         3.07206070       1.72723140      12.42617630
Si         0.92795890       9.46187300       4.55715790
Si         1.39130130       6.27640280       2.85093910
Si        10.93972040      10.42890330      10.35882980
Si         2.44973110       6.07233640       7.53159240
Si        10.38902660      10.15856880       0.86038030
Si         2.72491870       6.94039840      11.98537770
Si         0.90136550      14.34076590       4.79131720
Si         3.32275330      11.85564920       1.87616610
Si        11.00238000      15.15152720       9.86909700
Si         2.72597060      11.36254240       7.42560520
Si        11.04619450      15.40349390      14.79863810
Si         3.57826370      12.20785510      12.40013980
Si         6.22796920       4.07347140       5.19290930
Si         7.63575620       0.72910570       2.45609600
Si         6.38870850       4.68465640       9.52202840
Si         8.56268190       0.54360300       7.20820410
Si         6.05550740       4.47682210      14.71793680
Si         7.29143390       0.42589650      11.95596330
Si         5.80623570       9.01095200       4.75650500
Si         8.38063180       5.69315610       2.74997490
Si         5.72079400       9.85492580       9.72892080
Si         9.02034860       5.87541670       8.36505820
Si         6.77308060       9.27822090      14.11070100
Si         9.28272080       6.68581870      12.19786960
Si         5.66007270      14.44594870       5.01848240
Si         8.42562280      11.88047330       2.53287750
Si         5.48046610      15.22067490       9.98866680
Si         8.19234500      11.32450000       7.21542010
Si         3.52117900      15.71509470       1.50071850
Si         9.07755210      13.55435560      11.60725210
