Fe  O Si                                
   1.0000000000000000     
    10.9149494472152462    0.0236987130282775    0.2666983326582706
     0.0326842020926707   16.0203258420212826   -0.0118383658612374
     0.2657297677249647   -0.0104296306756224   14.6563192917889804
   Fe   O    Si
    36   144    36
Direct
  0.2012468613837900  0.2195811060767831  0.1453504970201037
  0.5226878493385791  0.1367739501251402  0.3538590290392166
  0.0251541975421395  0.2285479272918054  0.4583297351531726
  0.2914213517804257  0.0522593473479066  0.6906707622947362
  0.1776541121131767  0.1832655354275430  0.8081793325575324
  0.3185670313566153  0.1886899602746967  0.9812345968370428
  0.0530976721547771  0.4722745167768190  0.1511220591420019
  0.2925449879226651  0.4399846481529827  0.3240203989880633
  0.1723245827806564  0.5913072951279892  0.4607776131751003
  0.2520586424164930  0.4926288095812588  0.6487182866156493
  0.1529713674955196  0.5291892403232062  0.8285781500165530
  0.5311024313678397  0.4412546998431121  0.9876067783329449
  0.1544249917409668  0.9107208468926152  0.1899125220079716
  0.4204385839544170  0.7975566055655314  0.2763218409768662
  0.2373452910986906  0.9457838877900276  0.5116835107268055
  0.4461418916163004  0.7502372932274086  0.6802175146668303
  0.0698417027870342  0.8692255128179406  0.8897532597959826
  0.3502428046480552  0.7395476250025655  0.0125115315187546
  0.6754794479942956  0.2165445560400855  0.1529785160722598
  0.9171990134120672  0.1364080544737047  0.3172267778411601
  0.4220851282954448  0.2692355643260056  0.4669018065088687
  0.9618145021583611  0.0800139493540196  0.7261278898121548
  0.6850112724531061  0.2168963426394689  0.7053791781780950
  0.7855816383621997  0.1082085256304916  0.9995858776166500
  0.6693605508871154  0.5657937454140163  0.1338482471884672
  0.8400702838595699  0.4657798830918058  0.3180934923238184
  0.6610749898977735  0.6058663937051151  0.4370070799633332
  0.8244260395548847  0.4150324434838179  0.6470402723798974
  0.6628088382594588  0.5376386470212930  0.7806040766571730
  0.9778248131594164  0.4032275649977046  0.9463386943849168
  0.6641163402738869  0.8665627127291006  0.1411982035182563
  0.9319603038077943  0.8406080764006773  0.3008767615124996
  0.7448151674927193  0.9403728464542993  0.4815344265012139
  0.9191966445967850  0.7389202832360362  0.6562615767418224
  0.5486683630499694  0.8786290069736339  0.7914338337738829
  0.8310069039353656  0.7391506180916326  0.9930428018038456
  0.0661219124096357  0.2806681479399534  0.1614777332489780
  0.1638513867386051  0.1311669593863187  0.2163967034512731
  0.3354524959000770  0.1413286665393698  0.1088962072219552
  0.2842181446047812  0.2666793706830262  0.2327525920174346
  0.0152746092933931  0.0745263717215457  0.3841198970454824
  0.2850441671671037  0.2895694008215642  0.0577675696142131
  0.1363266111531027  0.1717360776730345  0.0394393614531523
  0.3961530062311190  0.1028911109850827  0.2778402304552243
  0.0139751634665306  0.2032047933522251  0.5746129985453386
  0.1778054543932264  0.1834837583225874  0.4451578281057428
  0.3990467435298115  0.1503704159198317  0.4565497794804190
  0.3206893037200924  0.1696463250634527  0.7275756685593502
  0.9723605420541218  0.9980569528576109  0.6450012811743144
  0.0477797252040054  0.3409406565835332  0.4653322975435551
  0.0275696406951880  0.2307461939943602  0.3290636578059616
  0.2379357314947228  0.0621488444162420  0.5675660418273452
  0.0381836131468599  0.1702406960591802  0.8765442484812183
  0.1312670008018316  0.0871726472727563  0.7406411595648918
  0.3245597292606755  0.9874542669448877  0.7896410520702661
  0.4654564648373654  0.2042689011007204  0.9219834612862775
  0.9099322146780583  0.0339070564789969  0.9973145220152729
  0.2344137021769217  0.2667381305509445  0.8732595807465001
  0.1218079551693372  0.2549133202485887  0.7283282097610435
  0.2564209139304920  0.1096200121967200  0.8944009926331358
  0.9861057412183885  0.5268361725461272  0.2661106269981516
  0.1709911013357091  0.4380803720631744  0.0641829729492426
  0.4157584853293810  0.4305168505448559  0.0794046842861946
  0.3285043350576891  0.5460065603345349  0.3059461558671368
  0.9292792643223494  0.3778383181554791  0.2637736635157415
  0.1362488023566730  0.6623194361392201  0.2443172306209603
  0.0141860247486044  0.5734631519953256  0.0918745054698569
  0.1841275084498741  0.4264736321467702  0.2484894467678395
  0.1289348035484274  0.5707487536709983  0.5843631850528638
  0.1819177002637489  0.4765724058760239  0.4231225369055324
  0.2912555261713765  0.3478062028075631  0.4159563568936221
  0.3862369488721263  0.5265879561499549  0.5764250098274761
  0.9610112278923671  0.3496078994005406  0.6608976454604346
  0.2733653291798526  0.6791453160516848  0.4598278330018738
  0.0341797462404006  0.6219907234272322  0.4054443311893418
  0.2019039799696508  0.4005278767439214  0.5862373963195453
  0.1497303063684550  0.5813642529021090  0.9369392030476623
  0.1283067245856394  0.4161950096190611  0.8657760115032030
  0.2919546102346677  0.4691666444681715  0.7756442609619321
  0.4895464142857465  0.5486597884849932  0.9769898374108079
  0.0452705652272982  0.3087803627194362  0.9777287705303377
  0.2072270043419045  0.6236825076411290  0.7722356007697337
  0.0647883079054223  0.5000053677431964  0.7282685588462963
  0.3439195744483567  0.3937142782874974  0.9267574249508691
  0.0706036067091786  0.9237194396371007  0.3081095626272770
  0.0535720296999912  0.8122815588907615  0.1866031483717742
  0.2126388897066399  0.7157419804957051  0.0798019139783263
  0.4350685783623114  0.9066777264127094  0.2989455807544832
  0.9055343191092514  0.6838752599109047  0.2705885498821118
  0.2744755346482646  0.9855365374209010  0.1846570683669763
  0.0530265665190565  0.9620242597733017  0.1149577718296519
  0.2611876933586967  0.8158827915739224  0.2223684744652822
  0.1995096098290781  0.9238703079616238  0.6356696732348356
  0.2370799684629583  0.8409723108123089  0.4669997181335304
  0.4468919220793610  0.7727065202956523  0.3916551691019158
  0.4012995505856214  0.9345337958812605  0.5216088634406891
  0.9760528430030962  0.6476086037046105  0.7010737775321136
  0.2576015028350350  0.0169088969912534  0.4117506279397159
  0.0731554792748049  0.9504807460354030  0.4937559330997369
  0.4136249392177547  0.7678631537370679  0.5674302444872855
  0.9426089615576757  0.8659924390771991  0.9863947148018845
  0.1366558481487621  0.7657054466251851  0.8679330857625482
  0.3158740662274204  0.7710565619223326  0.7506659260461253
  0.3621094605837015  0.8481456092293858  0.0407300349333063
  0.9436317152449527  0.6705534763356386  0.9440967536343577
  0.1721543110199992  0.9506257039407926  0.9317379406015621
  0.0367442803788660  0.9068330415626699  0.7768569359476758
  0.3412963497599202  0.6878658276687402  0.9053068754096317
  0.5183770010177832  0.2597868991626771  0.1682753235889916
  0.6324210725614388  0.1433206941859252  0.2697205816631332
  0.7219142348090321  0.0949518984506549  0.1247116126114991
  0.8576127649883938  0.2106516737602916  0.2339880788268011
  0.5445842658595696  0.0335558047435101  0.3884178221147587
  0.7464429440588377  0.3211608640280826  0.1425380473553245
  0.6681655017719285  0.1941137852592485  0.0110952732792760
  0.8571402140075334  0.0464399729418528  0.2634459455524223
  0.3433929158795220  0.2646559971586962  0.5757684162828942
  0.6173588058160513  0.1771695710872878  0.4439843119999689
  0.8562169080958703  0.1952349379038184  0.4318812052954735
  0.9029980070400531  0.1888320941064598  0.7277336322086991
  0.4450764744313246  0.0416934708745799  0.6491577741896172
  0.5368556104922541  0.3449497075503716  0.4873487896442249
  0.4725081836705626  0.2522836825333799  0.3430412901385535
  0.7460771929534828  0.1741211352055048  0.5948125039404329
  0.6629392475267024  0.2808664582470997  0.8484216472571763
  0.6488556887496872  0.1253493438769448  0.7781597313221844
  0.8534983460404614  0.0378747322302703  0.8039770921546057
  0.8903588749855491  0.1908566768222355  0.0223806733021185
  0.3968649652908382  0.9967156358955522  0.9642593475135153
  0.7348868139006022  0.3380699029602067  0.7149327000283702
  0.5328040707816420  0.2431736388607902  0.6695189425480735
  0.6870095651422168  0.0441431106613036  0.9336025357344567
  0.5131126062058430  0.5553674880518885  0.1787862304242135
  0.6793009651385787  0.4687000081122223  0.0586664698994661
  0.9204783239121552  0.4197074212859503  0.0770223121731484
  0.7985424477022927  0.5509093285066159  0.3845840446432824
  0.4240822198230025  0.3941784374445419  0.2694635837865867
  0.6938423741552531  0.6550500319377038  0.2018346185665984
  0.6989074327471451  0.6265043647169134  0.0234118327257342
  0.7646551840470892  0.4855043805272551  0.2012390474639719
  0.5830322376286871  0.6357374368447460  0.5439538223176307
  0.6089172280292907  0.4964495324268625  0.4973176819794846
  0.7229861849851360  0.3991139075451530  0.3698946964728327
  0.8945580202290038  0.5107970943531344  0.6026789155642375
  0.3508806549006383  0.3300305176772199  0.7469686281194222
  0.7289374548177983  0.7059321820299613  0.4205050421017525
  0.5439418537216915  0.5980406831085554  0.3532372865688702
  0.7633212440830737  0.3768395057847702  0.5429186804330898
  0.6090516893675435  0.6355498175585969  0.8585779420729172
  0.6215432428301865  0.4446233830367522  0.8631573006117432
  0.7978153908605001  0.4663296006294560  0.7661328709151356
  0.9425085250141335  0.5110146023821187  0.9281815780507358
  0.5714104714583694  0.3365758408159861  0.9987166119103569
  0.7388939412606768  0.6269345879253122  0.7321911469651302
  0.5821939064770603  0.5084139687949513  0.6782586510729722
  0.8471243711148553  0.3605426293418796  0.8916225224267228
  0.5524973854161107  0.8051446516313957  0.1877013950325626
  0.7079630882472882  0.8050751885463615  0.0517893062299589
  0.8867109164804948  0.7178866839806655  0.1012673726869225
  0.8771789066138282  0.9310057176828519  0.3927412584664192
  0.4008087780699360  0.6905568609792148  0.2420425380040957
  0.6454404312307318  0.9634452607840935  0.2371274888415020
  0.5670837572206981  0.9347493465092329  0.0752888254397522
  0.7829723997971897  0.8134196327176402  0.2291263002450717
  0.6351395930538953  0.9634598030674517  0.5727173866828130
  0.7825064315791638  0.8393415919038484  0.5291648295525769
  0.9463546092458555  0.7801104026259994  0.4043509296085098
  0.0049137191053915  0.8270764948282787  0.6237424184436320
  0.4518673164423829  0.6489901058750260  0.6883514641219108
  0.7760398059302951  0.0502477697784794  0.4687929764549321
  0.6404823516812165  0.8899619399798480  0.3983431652286252
  0.8774994834099354  0.6932161187819648  0.5545217864066876
  0.5248649120369315  0.8669570985161492  0.9085680626427952
  0.5790260840997780  0.7652076366472501  0.7617811503490737
  0.8082935665111500  0.7723701877503492  0.7332541086348993
  0.8127104397080487  0.9440145355402738  0.1257833706616890
  0.5060322199363221  0.7129301492646807  0.0155275146459077
  0.6474956097024462  0.9611985380879491  0.7784712775348799
  0.4811011690303253  0.8804819870747793  0.6810332355922217
  0.7523281299219613  0.7538704086474797  0.8887803634620123
  0.9643897543257176  0.2828600616645378  0.2457581655151187
  0.3005781483820524  0.0841028577218178  0.2012855513172047
  0.9953350965481935  0.2539875682405857  0.6714753749005026
  0.2646039445919564  0.1066929035374917  0.4666886168877846
  0.0251292651461773  0.2093983240795897  0.9802282858124174
  0.2824491880549903  0.0087969938360072  0.8955506884376010
  0.0154067488005019  0.6223248452877359  0.2981394173756179
  0.2954234651887226  0.3898922332566184  0.0356292993451866
  0.0060268076642041  0.5571056440116584  0.6505389745365950
  0.1763751188153062  0.3872118179935201  0.4809822224211244
  0.0109608884548615  0.5868616193592631  0.9835769105845145
  0.2705697470475189  0.3739536221105819  0.8321720342202470
  0.0141321162334329  0.9743476847803848  0.3975970187038599
  0.1690130006082913  0.7424398781810231  0.1825644819350171
  0.0537756175847312  0.9135897260067547  0.6684958492047270
  0.3404913394890805  0.7658423199900759  0.4728982163703477
  0.9351016202570002  0.9478574434253002  0.0517943709910472
  0.2447394439720485  0.7079440605972128  0.8265138374175439
  0.4265147939486922  0.2937848865197610  0.2466096376308518
  0.7561703569647175  0.0219012238368437  0.1929992825675756
  0.3895882083814384  0.2531434126534081  0.6810473896614379
  0.7434334154349530  0.1473671128858600  0.4909859526364803
  0.5904302673597980  0.2508509447476141  0.9413531785078866
  0.7052415153055361  0.0455592253022036  0.8230513729305641
  0.4520684314255934  0.5981557518837696  0.2708453805171479
  0.7792042903689893  0.4142791754485359  0.1182972969067279
  0.5291495578713348  0.5460386511359210  0.5849769883452829
  0.6595126378877681  0.4004072763104213  0.4726792277284284
  0.5719036784022296  0.6309635176344766  0.9682187595664097
  0.7325306278301561  0.3748097950378197  0.8245355080193180
  0.5608111980324219  0.9465115948509814  0.3337367215391291
  0.8105412558598719  0.7158892592309213  0.1985137382163168
  0.4938911939888949  0.9544647714784533  0.6019192138589992
  0.8322353539475382  0.7574150902806233  0.4736066524824465
  0.4660119530065313  0.9136850139200043  0.0006681359174534
  0.7007755322840591  0.7100219775794387  0.7966612669214925

  0.00000000E+00  0.00000000E+00  0.00000000E+00
  0.00000000E+00  0.00000000E+00  0.00000000E+00
  0.00000000E+00  0.00000000E+00  0.00000000E+00
  0.00000000E+00  0.00000000E+00  0.00000000E+00
  0.00000000E+00  0.00000000E+00  0.00000000E+00
  0.00000000E+00  0.00000000E+00  0.00000000E+00
  0.00000000E+00  0.00000000E+00  0.00000000E+00
  0.00000000E+00  0.00000000E+00  0.00000000E+00
  0.00000000E+00  0.00000000E+00  0.00000000E+00
  0.00000000E+00  0.00000000E+00  0.00000000E+00
  0.00000000E+00  0.00000000E+00  0.00000000E+00
  0.00000000E+00  0.00000000E+00  0.00000000E+00
  0.00000000E+00  0.00000000E+00  0.00000000E+00
  0.00000000E+00  0.00000000E+00  0.00000000E+00
  0.00000000E+00  0.00000000E+00  0.00000000E+00
  0.00000000E+00  0.00000000E+00  0.00000000E+00
  0.00000000E+00  0.00000000E+00  0.00000000E+00
  0.00000000E+00  0.00000000E+00  0.00000000E+00
  0.00000000E+00  0.00000000E+00  0.00000000E+00
  0.00000000E+00  0.00000000E+00  0.00000000E+00
  0.00000000E+00  0.00000000E+00  0.00000000E+00
  0.00000000E+00  0.00000000E+00  0.00000000E+00
  0.00000000E+00  0.00000000E+00  0.00000000E+00
  0.00000000E+00  0.00000000E+00  0.00000000E+00
  0.00000000E+00  0.00000000E+00  0.00000000E+00
  0.00000000E+00  0.00000000E+00  0.00000000E+00
  0.00000000E+00  0.00000000E+00  0.00000000E+00
  0.00000000E+00  0.00000000E+00  0.00000000E+00
  0.00000000E+00  0.00000000E+00  0.00000000E+00
  0.00000000E+00  0.00000000E+00  0.00000000E+00
  0.00000000E+00  0.00000000E+00  0.00000000E+00
  0.00000000E+00  0.00000000E+00  0.00000000E+00
  0.00000000E+00  0.00000000E+00  0.00000000E+00
  0.00000000E+00  0.00000000E+00  0.00000000E+00
  0.00000000E+00  0.00000000E+00  0.00000000E+00
  0.00000000E+00  0.00000000E+00  0.00000000E+00
  0.00000000E+00  0.00000000E+00  0.00000000E+00
  0.00000000E+00  0.00000000E+00  0.00000000E+00
  0.00000000E+00  0.00000000E+00  0.00000000E+00
  0.00000000E+00  0.00000000E+00  0.00000000E+00
  0.00000000E+00  0.00000000E+00  0.00000000E+00
  0.00000000E+00  0.00000000E+00  0.00000000E+00
  0.00000000E+00  0.00000000E+00  0.00000000E+00
  0.00000000E+00  0.00000000E+00  0.00000000E+00
  0.00000000E+00  0.00000000E+00  0.00000000E+00
  0.00000000E+00  0.00000000E+00  0.00000000E+00
  0.00000000E+00  0.00000000E+00  0.00000000E+00
  0.00000000E+00  0.00000000E+00  0.00000000E+00
  0.00000000E+00  0.00000000E+00  0.00000000E+00
  0.00000000E+00  0.00000000E+00  0.00000000E+00
  0.00000000E+00  0.00000000E+00  0.00000000E+00
  0.00000000E+00  0.00000000E+00  0.00000000E+00
  0.00000000E+00  0.00000000E+00  0.00000000E+00
  0.00000000E+00  0.00000000E+00  0.00000000E+00
  0.00000000E+00  0.00000000E+00  0.00000000E+00
  0.00000000E+00  0.00000000E+00  0.00000000E+00
  0.00000000E+00  0.00000000E+00  0.00000000E+00
  0.00000000E+00  0.00000000E+00  0.00000000E+00
  0.00000000E+00  0.00000000E+00  0.00000000E+00
  0.00000000E+00  0.00000000E+00  0.00000000E+00
  0.00000000E+00  0.00000000E+00  0.00000000E+00
  0.00000000E+00  0.00000000E+00  0.00000000E+00
  0.00000000E+00  0.00000000E+00  0.00000000E+00
  0.00000000E+00  0.00000000E+00  0.00000000E+00
  0.00000000E+00  0.00000000E+00  0.00000000E+00
  0.00000000E+00  0.00000000E+00  0.00000000E+00
  0.00000000E+00  0.00000000E+00  0.00000000E+00
  0.00000000E+00  0.00000000E+00  0.00000000E+00
  0.00000000E+00  0.00000000E+00  0.00000000E+00
  0.00000000E+00  0.00000000E+00  0.00000000E+00
  0.00000000E+00  0.00000000E+00  0.00000000E+00
  0.00000000E+00  0.00000000E+00  0.00000000E+00
  0.00000000E+00  0.00000000E+00  0.00000000E+00
  0.00000000E+00  0.00000000E+00  0.00000000E+00
  0.00000000E+00  0.00000000E+00  0.00000000E+00
  0.00000000E+00  0.00000000E+00  0.00000000E+00
  0.00000000E+00  0.00000000E+00  0.00000000E+00
  0.00000000E+00  0.00000000E+00  0.00000000E+00
  0.00000000E+00  0.00000000E+00  0.00000000E+00
  0.00000000E+00  0.00000000E+00  0.00000000E+00
  0.00000000E+00  0.00000000E+00  0.00000000E+00
  0.00000000E+00  0.00000000E+00  0.00000000E+00
  0.00000000E+00  0.00000000E+00  0.00000000E+00
  0.00000000E+00  0.00000000E+00  0.00000000E+00
  0.00000000E+00  0.00000000E+00  0.00000000E+00
  0.00000000E+00  0.00000000E+00  0.00000000E+00
  0.00000000E+00  0.00000000E+00  0.00000000E+00
  0.00000000E+00  0.00000000E+00  0.00000000E+00
  0.00000000E+00  0.00000000E+00  0.00000000E+00
  0.00000000E+00  0.00000000E+00  0.00000000E+00
  0.00000000E+00  0.00000000E+00  0.00000000E+00
  0.00000000E+00  0.00000000E+00  0.00000000E+00
  0.00000000E+00  0.00000000E+00  0.00000000E+00
  0.00000000E+00  0.00000000E+00  0.00000000E+00
  0.00000000E+00  0.00000000E+00  0.00000000E+00
  0.00000000E+00  0.00000000E+00  0.00000000E+00
  0.00000000E+00  0.00000000E+00  0.00000000E+00
  0.00000000E+00  0.00000000E+00  0.00000000E+00
  0.00000000E+00  0.00000000E+00  0.00000000E+00
  0.00000000E+00  0.00000000E+00  0.00000000E+00
  0.00000000E+00  0.00000000E+00  0.00000000E+00
  0.00000000E+00  0.00000000E+00  0.00000000E+00
  0.00000000E+00  0.00000000E+00  0.00000000E+00
  0.00000000E+00  0.00000000E+00  0.00000000E+00
  0.00000000E+00  0.00000000E+00  0.00000000E+00
  0.00000000E+00  0.00000000E+00  0.00000000E+00
  0.00000000E+00  0.00000000E+00  0.00000000E+00
  0.00000000E+00  0.00000000E+00  0.00000000E+00
  0.00000000E+00  0.00000000E+00  0.00000000E+00
  0.00000000E+00  0.00000000E+00  0.00000000E+00
  0.00000000E+00  0.00000000E+00  0.00000000E+00
  0.00000000E+00  0.00000000E+00  0.00000000E+00
  0.00000000E+00  0.00000000E+00  0.00000000E+00
  0.00000000E+00  0.00000000E+00  0.00000000E+00
  0.00000000E+00  0.00000000E+00  0.00000000E+00
  0.00000000E+00  0.00000000E+00  0.00000000E+00
  0.00000000E+00  0.00000000E+00  0.00000000E+00
  0.00000000E+00  0.00000000E+00  0.00000000E+00
  0.00000000E+00  0.00000000E+00  0.00000000E+00
  0.00000000E+00  0.00000000E+00  0.00000000E+00
  0.00000000E+00  0.00000000E+00  0.00000000E+00
  0.00000000E+00  0.00000000E+00  0.00000000E+00
  0.00000000E+00  0.00000000E+00  0.00000000E+00
  0.00000000E+00  0.00000000E+00  0.00000000E+00
  0.00000000E+00  0.00000000E+00  0.00000000E+00
  0.00000000E+00  0.00000000E+00  0.00000000E+00
  0.00000000E+00  0.00000000E+00  0.00000000E+00
  0.00000000E+00  0.00000000E+00  0.00000000E+00
  0.00000000E+00  0.00000000E+00  0.00000000E+00
  0.00000000E+00  0.00000000E+00  0.00000000E+00
  0.00000000E+00  0.00000000E+00  0.00000000E+00
  0.00000000E+00  0.00000000E+00  0.00000000E+00
  0.00000000E+00  0.00000000E+00  0.00000000E+00
  0.00000000E+00  0.00000000E+00  0.00000000E+00
  0.00000000E+00  0.00000000E+00  0.00000000E+00
  0.00000000E+00  0.00000000E+00  0.00000000E+00
  0.00000000E+00  0.00000000E+00  0.00000000E+00
  0.00000000E+00  0.00000000E+00  0.00000000E+00
  0.00000000E+00  0.00000000E+00  0.00000000E+00
  0.00000000E+00  0.00000000E+00  0.00000000E+00
  0.00000000E+00  0.00000000E+00  0.00000000E+00
  0.00000000E+00  0.00000000E+00  0.00000000E+00
  0.00000000E+00  0.00000000E+00  0.00000000E+00
  0.00000000E+00  0.00000000E+00  0.00000000E+00
  0.00000000E+00  0.00000000E+00  0.00000000E+00
  0.00000000E+00  0.00000000E+00  0.00000000E+00
  0.00000000E+00  0.00000000E+00  0.00000000E+00
  0.00000000E+00  0.00000000E+00  0.00000000E+00
  0.00000000E+00  0.00000000E+00  0.00000000E+00
  0.00000000E+00  0.00000000E+00  0.00000000E+00
  0.00000000E+00  0.00000000E+00  0.00000000E+00
  0.00000000E+00  0.00000000E+00  0.00000000E+00
  0.00000000E+00  0.00000000E+00  0.00000000E+00
  0.00000000E+00  0.00000000E+00  0.00000000E+00
  0.00000000E+00  0.00000000E+00  0.00000000E+00
  0.00000000E+00  0.00000000E+00  0.00000000E+00
  0.00000000E+00  0.00000000E+00  0.00000000E+00
  0.00000000E+00  0.00000000E+00  0.00000000E+00
  0.00000000E+00  0.00000000E+00  0.00000000E+00
  0.00000000E+00  0.00000000E+00  0.00000000E+00
  0.00000000E+00  0.00000000E+00  0.00000000E+00
  0.00000000E+00  0.00000000E+00  0.00000000E+00
  0.00000000E+00  0.00000000E+00  0.00000000E+00
  0.00000000E+00  0.00000000E+00  0.00000000E+00
  0.00000000E+00  0.00000000E+00  0.00000000E+00
  0.00000000E+00  0.00000000E+00  0.00000000E+00
  0.00000000E+00  0.00000000E+00  0.00000000E+00
  0.00000000E+00  0.00000000E+00  0.00000000E+00
  0.00000000E+00  0.00000000E+00  0.00000000E+00
  0.00000000E+00  0.00000000E+00  0.00000000E+00
  0.00000000E+00  0.00000000E+00  0.00000000E+00
  0.00000000E+00  0.00000000E+00  0.00000000E+00
  0.00000000E+00  0.00000000E+00  0.00000000E+00
  0.00000000E+00  0.00000000E+00  0.00000000E+00
  0.00000000E+00  0.00000000E+00  0.00000000E+00
  0.00000000E+00  0.00000000E+00  0.00000000E+00
  0.00000000E+00  0.00000000E+00  0.00000000E+00
  0.00000000E+00  0.00000000E+00  0.00000000E+00
  0.00000000E+00  0.00000000E+00  0.00000000E+00
  0.00000000E+00  0.00000000E+00  0.00000000E+00
  0.00000000E+00  0.00000000E+00  0.00000000E+00
  0.00000000E+00  0.00000000E+00  0.00000000E+00
  0.00000000E+00  0.00000000E+00  0.00000000E+00
  0.00000000E+00  0.00000000E+00  0.00000000E+00
  0.00000000E+00  0.00000000E+00  0.00000000E+00
  0.00000000E+00  0.00000000E+00  0.00000000E+00
  0.00000000E+00  0.00000000E+00  0.00000000E+00
  0.00000000E+00  0.00000000E+00  0.00000000E+00
  0.00000000E+00  0.00000000E+00  0.00000000E+00
  0.00000000E+00  0.00000000E+00  0.00000000E+00
  0.00000000E+00  0.00000000E+00  0.00000000E+00
  0.00000000E+00  0.00000000E+00  0.00000000E+00
  0.00000000E+00  0.00000000E+00  0.00000000E+00
  0.00000000E+00  0.00000000E+00  0.00000000E+00
  0.00000000E+00  0.00000000E+00  0.00000000E+00
  0.00000000E+00  0.00000000E+00  0.00000000E+00
  0.00000000E+00  0.00000000E+00  0.00000000E+00
  0.00000000E+00  0.00000000E+00  0.00000000E+00
  0.00000000E+00  0.00000000E+00  0.00000000E+00
  0.00000000E+00  0.00000000E+00  0.00000000E+00
  0.00000000E+00  0.00000000E+00  0.00000000E+00
  0.00000000E+00  0.00000000E+00  0.00000000E+00
  0.00000000E+00  0.00000000E+00  0.00000000E+00
  0.00000000E+00  0.00000000E+00  0.00000000E+00
  0.00000000E+00  0.00000000E+00  0.00000000E+00
  0.00000000E+00  0.00000000E+00  0.00000000E+00
  0.00000000E+00  0.00000000E+00  0.00000000E+00
  0.00000000E+00  0.00000000E+00  0.00000000E+00
  0.00000000E+00  0.00000000E+00  0.00000000E+00
  0.00000000E+00  0.00000000E+00  0.00000000E+00
  0.00000000E+00  0.00000000E+00  0.00000000E+00
  0.00000000E+00  0.00000000E+00  0.00000000E+00
  0.00000000E+00  0.00000000E+00  0.00000000E+00
  0.00000000E+00  0.00000000E+00  0.00000000E+00
  0.00000000E+00  0.00000000E+00  0.00000000E+00
  0.00000000E+00  0.00000000E+00  0.00000000E+00
