   936
 Wannier centres, written by Wannier90 on23Jan2025 at 17:08:17 
X          4.83978558      10.31139629      10.13877816
X          7.54568477      12.70820492       0.94558700
X          1.67319503       2.20876420       3.42707564
X          5.92727382      12.81902449       2.65056056
X          2.29212627       6.75129960       3.44247731
X          4.72622673       6.91795556       1.49674575
X          3.04506022       0.13219212       5.91961141
X          2.14474722       9.45886366      13.77314220
X          4.76916160       6.39627430       3.78054486
X          5.15397694      12.13988339       5.82717706
X          5.16102151       0.77727706       9.87021657
X          9.55663378      10.92304546       8.45578123
X          6.34986383      10.39550393       8.02476453
X          7.06145172       1.98022012       4.06510872
X          1.95344137       6.60394742       3.87504844
X          5.31552529      10.42912028      10.48096675
X          7.62815943       0.51191090      14.00940966
X          9.16446572       7.62994971      11.50802434
X         10.26014117       8.23689007      13.83852550
X          0.86607749       4.77259008       2.33800551
X          9.94457309      11.71985892       1.76182209
X          2.62018861       4.24110797      13.11894623
X          7.44827566      10.50991580       3.33287114
X          7.89848580      10.23564197       0.51126681
X         10.63051609      12.55446513       5.90846434
X          9.05031698       9.03855018       5.68701098
X          8.42472585       9.93028590      10.69862907
X         10.67001503      10.91566913      13.87302477
X          5.53871186       8.74264834       2.57774441
X          3.52340471      12.48320846      10.87514042
X          0.28601436       1.35450924       5.88128919
X          6.17705971       5.28606813       0.37906861
X          4.65248826      14.58890295       4.67834985
X         10.91658310       0.24614650       9.58172706
X          5.70771061      11.65942117       0.36593644
X          6.79558441       2.46382164       3.88563074
X          9.72377609       8.37650774       9.04109814
X          2.98094689       4.38436676       3.67458815
X          6.97199795      14.03499481       6.00473787
X          9.12818429       3.39264352       3.68576292
X          2.50454823      13.37477062       7.05792435
X          3.69205206       4.39006477       8.38333174
X          4.18885931      10.81261515      13.29530041
X          2.16501126      11.31090570       1.10368175
X          9.76475355       0.49391929      12.12604877
X          9.74924258       2.99707224      10.88170644
X          5.90407967       0.56267668       6.07743486
X          0.52772840      10.25094399       5.79500686
X          8.93663692      12.61800360      10.83476346
X          6.14367634      13.66811733      13.55242968
X          0.70681652       7.82366558      10.74888684
X          0.57678565       2.45535626      12.72825301
X          7.38112598       2.27453216      11.36604113
X          0.50360738       5.62517543       7.00552067
X          1.77712155       4.11117026      10.53181878
X          5.35286416       8.83669451      14.49840275
X          2.24025675       6.15031822       8.66063783
X         10.38276238       0.64182800      14.66271352
X          2.54964446      14.59693619       9.46703253
X          3.63957173       7.60653848      11.56314887
X          3.92912457       2.39624835       1.80672218
X          8.19853915      11.29385038       6.07702574
X         10.72880948      10.44546863      10.76404158
X         10.33544981      13.71188936      14.66543036
X          0.23857022       9.41333952       1.49842817
X          9.57285476       3.31815365       0.54482478
X          8.58761660       5.79329436       8.10139784
X          7.78189175       6.44843011       5.43334689
X          3.58716539      15.61662725      11.58260013
X          5.09763274       3.18154948      13.86671857
X          0.64254827       3.62349971       4.70557187
X         10.42224147       5.85687964       9.99530665
X          7.52630186      15.20703539      11.58783827
X          4.62136360      14.75883509       7.55947444
X          0.42851062       2.97366168       8.43025513
X          3.71614603      13.63559690       0.58334918
X          1.79374053       2.75464822       0.44112878
X          8.49597163      13.36560494       8.14186697
X          3.28032100      15.62100533       2.87117421
X          0.93020476       5.07315678      14.53688842
X          0.55445757      13.03615316       2.47364667
X          0.60899111      15.68627467       1.77355250
X          9.53137757       0.51125557       4.20633094
X          0.84663797      15.32568392       7.53557473
X          3.41963939       8.87699968       4.57522668
X          2.60985656       9.85031002      11.13115595
X          6.32699712       3.82821203      10.01477578
X          4.52978664       2.29769694       7.06801645
X          8.20742624       7.61289464       3.23869441
X          9.54025152       5.49850354      13.25866421
X          6.45984387      15.15620885       1.15018514
X          3.42131561       5.28706739       6.11054806
X          5.43660532       4.11282139       2.49666260
X          9.72140709      14.63845530       5.82195691
X          6.31204400      12.71861004       3.03541375
X          6.67942261       3.08753736       6.72057567
X          3.09503334       4.16160917      12.87977949
X          8.87589439       8.69931270       6.12676350
X          9.51922822       2.96260246       6.24592821
X          2.21517650       3.15678672       6.48822951
X          7.13724862       7.47103997       0.92263053
X          8.52076768      13.08505642       3.81722114
X          7.68724462       1.35869151       1.95789850
X          4.30948378       8.50520750       8.27498025
X          2.22057815      15.21549188      13.96220429
X          1.73936497       6.89275723       0.75502568
X          6.16063003       9.55740650       5.62695710
X          0.24896958      13.06631890       8.90065797
X          6.35140530       7.95108160      10.12841986
X          4.31273278       6.30610819      13.67649566
X          4.19995114      11.10808546       3.48111558
X          1.54801260       1.18059966      11.11753529
X          7.18337737      15.32437547       8.82419019
X          8.64073583       0.90360838       6.77978476
X          1.96128075       7.92531914       6.19499027
X          2.46118207       1.08138927       8.36319967
X          3.95511105       2.76150660      10.90759545
X          7.51932816       4.37984946      12.31935674
X          4.70598428      12.61017995       8.42719654
X          1.02490162      14.60455572       4.67348861
X          8.25533526      12.27581206      13.28516071
X          8.23761923       2.95981418       9.20678633
X         10.94991841       8.29098015       3.86092335
X          7.93974107       5.54676513      10.65602729
X          2.85032699      12.98873016       3.58915781
X          1.66462975       9.20448172       8.25659751
X         10.22452390       6.99215054       1.51705313
X          0.66857048      14.44331535      11.70795463
X          8.07470917       4.84448067       2.32217437
X          1.49663902      12.49134967      12.74581048
X          3.18692214       4.42029648       0.67196552
X          1.34178076       6.64083263      13.00986754
X          1.80430610      10.48328961       3.57085855
X          7.00998213       3.00979097       0.33778522
X          4.10135486       5.44438827      10.78539925
X          5.65637959       5.25836148       7.16067225
X          4.89604057      15.99345919      14.12153757
X          5.23427948      14.28155074      10.21087237
X          6.86367428       6.95595770      12.64870042
X          6.62198110      10.24267878      12.72582741
X          8.61127102      14.90163104       2.01433727
X          2.96659804      10.61495150       6.65622542
X          5.47521388       4.25770126       5.02671694
X          3.05979478       1.93379380      13.45826614
X          6.73545232      12.32244122      11.06996149
X          4.78692053       1.78361129       4.42633413
X          9.94463181       6.36158614       4.29504371
X          9.68766887      10.93001520       4.28029743
X          6.58356103       7.86629606       7.29446338
X          7.67591850       7.60860349       0.86485151
X          8.16858021      12.71205672       0.91835952
X          7.15321905      15.11482485       3.38243381
X         10.16589316       6.69194318       0.97403909
X          1.27989396       1.45472177      10.63555920
X          1.79654382       9.03470511       8.82170963
X          1.39923054       4.30905935      10.86930318
X          2.01304646       6.52379140      12.78875691
X          3.82206783      12.46336910      11.33747566
X          7.39432059       3.27283766       0.61432028
X          9.71359184      15.19061612       5.80159279
X          6.20125505      12.10649392      11.11713939
X          6.77623915      10.19922382       8.29700723
X         10.47449757      12.68872535       6.44079471
X          5.40869442      13.72269310      10.06007139
X          3.33712365       7.52659633      11.08499503
X          1.79065157       1.88847573       2.98085705
X          4.03717143      11.30893100      13.19115691
X          0.48966162      13.04682989       3.03734780
X          6.21835076       5.39825846       7.44594632
X          6.89058916       7.21605587      13.18740708
X          6.05019511       8.99483168       2.66080013
X          3.62590044       2.40514081      10.59447524
X          0.29650431       8.86494202       1.44926859
X          8.31864520       5.11566072      10.56347648
X          1.75474257       9.08423928      13.98865209
X          4.24259186       1.88436619       3.95670377
X          9.81945493       6.02187957      13.43410160
X          8.42106973      10.19535767      11.25298689
X          7.22902649      14.35388614       5.67974527
X          3.12397606      10.92051851       7.11758767
X          6.95369409       8.32106865       7.27058530
X          8.51174132       5.24069831       2.37713214
X          2.34440473       7.64846477       6.45963506
X          9.84494144       3.22635002       6.73472256
X          8.96213103      13.13247142       3.50989511
X          0.54464034       4.35181028       2.22584625
X          0.54326955      14.66289632       4.50771708
X          1.97927248      12.25444809      12.97220543
X          2.99036545       4.99779191       0.78555321
X          5.39926630       3.56877234       5.16756721
X          2.52490039       6.60789046       8.86653249
X          4.96062416      12.16275427       8.44062509
X          9.19169218      15.18178464       1.73508609
X          3.62822874       2.24606090       1.35906947
X          1.94665012       7.14362532       3.67420675
X          5.68659981      13.83929972      13.35407141
X          0.62951567       5.04775722       6.86320265
X          5.07046058      12.64220976       6.04655937
X          3.28036501      13.12994329       3.27774811
X          4.15272218       8.40441919       8.80765532
X          5.93101273      13.12863783       3.12689837
X          2.13293005       2.61786180       6.38185077
X          7.12798694      10.49001930      12.59639490
X          4.71051936      15.27521563       7.74532650
X          0.94178074      14.50938961      11.12975453
X          5.90243409       0.25282774       5.56180898
X          5.72355280       9.42938424       5.19475014
X          8.59922940       6.24439594       8.54707592
X          1.91817166      15.02907258      13.52971935
X          3.43015790       4.53295475       3.35051244
X          9.32127155       0.88276810      12.17010289
X          8.57614223       7.52967528       2.86028076
X          8.85000433       0.82436872       7.25026420
X          7.75363345      13.14168220       0.74070180
X          5.25613639       3.50339691      13.45187875
X          0.48726955       3.00979308      12.87658747
X          0.93524556      15.12532414       1.99410525
X          0.16376783       8.46283801       4.10484653
X          6.69911674       8.32088256      10.37910502
X          5.83664805       4.17436042      10.09165669
X          9.00548348      13.48471901       8.04036078
X          9.40756451      12.30326880      11.00070463
X          8.13300831       1.54932935       1.79133448
X          2.67450186      11.69526274       0.95356623
X          4.84249495       6.37765029       4.30337773
X          4.74769997       2.33871207       6.44449507
X          7.38563796      15.70772988      11.85810760
X          3.47059963       5.78200165       6.31895564
X          6.01671630       4.06089149       2.52245386
X          6.93230558       2.59277882       6.92953222
X          6.82866222       5.41636738      14.72378771
X          2.95240467       0.96503580       8.79276229
X          3.97747130       8.89529835       4.29522787
X          8.56246301       2.87472239       8.70862545
X          4.25571770      13.73868968       0.37552694
X          3.33178274       1.66595407      13.06398269
X          8.93642682       7.28368453      10.96342003
X          7.71989087      10.82135197       2.93799335
X          5.46474017      11.23289409       0.58472477
X          0.45309466       3.50945269       8.71166074
X          9.59560977       3.29944475       3.42351782
X          1.08232058       7.98515341      10.39055543
X          3.90365661       3.91595843       8.58794312
X          7.50215519      15.57808609       3.66664044
X         10.72435973       8.42977259      14.16527309
X          2.63127747      15.50176742       2.77113427
X          4.02726664       4.90692665      10.90365044
X          0.21808540       9.92001157       6.03144929
X          0.38032297       3.73561961       5.33261565
X          6.01766832      15.06062997       1.44037239
X          0.89153015       4.74592040      14.08795252
X          7.52102172       9.85407093       0.24578005
X         11.09491237      15.68051348       9.77957842
X          7.94105163      11.54599196       6.48789771
X          4.74215486      11.00473604       3.49843184
X          9.91721254      10.95593816       3.82212399
X          2.24629621       6.77635130       0.96768979
X         10.83006617      13.93446653      14.44500823
X          9.57708020       1.17829869       4.28381357
X          0.26017200      13.66041586       9.16513365
X         10.83903924      10.00133744      10.32446881
X          0.85772693      15.48501497       6.92306511
X         10.54031401       5.22856372      10.00844575
X          8.14973965       6.15086671       5.65108088
X          7.59471099       0.93169606      13.62320781
X          4.32971595       7.11999239       1.14964709
X          8.76798586      11.98431062      13.56751122
X          5.14663507       0.26567674       9.54524414
X         10.40735579       5.86805643       4.31960345
X          9.97207507       3.03473827       0.77832246
X          3.08986486      13.23252657       7.01091605
X          9.43312584      11.57935657       2.01598993
X         10.03426608      11.10845018       8.33490442
X          6.73964041      15.25945842       8.50475440
X         10.09532135       0.18181370      14.84560704
X         10.45915305      10.42410503      14.01843414
X          2.73609646      10.21279181      11.61947336
X          7.62430781       4.89118520      12.61148041
X         10.23168442       3.11081163      10.53636798
X          2.35901356      15.10498174       9.45372937
X          7.04464557       1.88773973      11.62603355
X          4.37712354      15.88004819      13.91791867
X          1.24038104      10.41947973       3.73752790
X         10.79914712       1.46318459       5.56785186
X          0.44716833      13.15996823       9.38095889
X          3.85626075       6.12660120      13.99921620
X          6.14958851      14.04263932      12.95034911
X          3.01074580       0.12142177       3.00201889
X         10.19433971       8.37202127       9.37055989
X          2.60714166       0.42219406       6.12140829
X          3.07320905       7.71919758      11.61733377
X          5.75139989       8.89764190      14.14005971
X          1.23779736       3.02920477       0.39938127
X          4.64955038      12.30829640       6.03398670
X          2.91114170       1.37744403      13.22848922
X          0.53466170       4.62360553      14.47349476
X         10.81225600       8.86802918       4.13098638
X          5.23994399      14.63219493       4.67612891
X          7.24639641      15.55365274      11.31672060
X          0.26587845      15.25214489       1.64348382
X          2.94162577       5.62254556       6.39786941
X          7.23705599       2.89387594       6.59851238
X          8.44286589      11.39530665       6.60592904
X          9.49630458       0.89053179       0.23559981
X          0.50679495       1.14043584       5.44485859
X          6.25489482       5.67629917       6.99377663
X          5.60518308       4.08153208       2.98711951
X          3.65189646      15.97148503      12.02733825
X          8.38001572       9.01740078       5.89923188
X          7.83294569       1.82937704       2.20036345
X          9.20439406       0.41128532      11.90524359
X          6.41131723       5.13456535      14.49483485
X          2.25433257      10.22931214      11.36223150
X          5.96831563      11.12556366      14.71522105
X          4.35461814       6.56857158       1.17573261
X         10.90978331       3.32555199       8.74939635
X         10.76082961       8.27216687      13.60600756
X          2.13216130       6.59769968       8.41614656
X         10.21961093       3.32360476      11.02182960
X          3.42424735       4.06350418       3.60619494
X          4.99437206       0.79187394       9.34645279
X         10.16910869       8.15963544       8.85422706
X          8.50268200       6.27668565       7.87438351
X          8.00068707      10.49474543       3.24832981
X          2.25312592       1.97932672       3.30286410
X          8.76365353      13.14278492       7.66347114
X          6.35634410       8.43800404       9.84629252
X         10.83263875      10.61273478      14.35343655
X          0.86635617      14.96339521       7.09381809
X          5.86239670       9.04634540      14.64058140
X          9.64749049       3.75466475       3.75640421
X          3.96582947      11.19681418      13.82115872
X         10.08254620      12.59132985       6.10634926
X         10.54805142      15.88450966       9.68582011
X          0.76370393       2.72680312      13.26747847
X          7.38146453       6.88914573      12.78645514
X          6.63576232       8.06153541       7.80644175
X          5.63281960       3.47795086      13.83679276
X          0.58853657       4.48821306       2.77146458
X         10.92208069       5.54962053      10.16290122
X          8.04935590       5.44395146       2.44060941
X          4.14675299      13.76167254       0.90241359
X          8.01008483      10.33866341      10.91516908
X          3.85722961       8.74118464       4.82848801
X          8.04091589       2.82881595       8.58062870
X          2.85326045       4.41320623       1.27674552
X          2.75859980      12.74729984       3.10100295
X          1.31099392       8.89435857       8.63148666
X          9.76887464      11.21842098       1.72548842
X          4.90245254      14.63121924       4.20171288
X          2.76780879      13.50154243       6.59749894
X         10.01137777       3.08956701       0.25034736
X          0.71501531       8.35266833      10.53112558
X          9.44879813       0.76269950       3.72899666
X          3.46989286      11.00101043       6.76484632
X          8.64785574      12.61951310       3.47437047
X          0.51386825       9.78726043       5.58080460
X         10.46461558      14.26885942      14.80513982
X         11.10097532      10.54218580      10.43846636
X          1.95668860      14.68489826       9.41675834
X          0.44563589      14.31836955      11.14768355
X         10.80813073       9.20052691       1.43214797
X          2.49991724      15.18954047      13.50460816
X          3.49854246      11.99297676      11.24626953
X          7.29409991      10.27442559       0.47929195
X          5.96265490       9.88800255       5.19403694
X         10.08950529      15.01481460       6.14438627
X          3.70026520       5.38988443      11.22784976
X          6.93449535      15.75859561       8.57686155
X          2.19732505      11.71053625       1.52004750
X          2.25250589       2.75720253       6.87976653
X          6.36880244       0.43986094       5.80652671
X          7.84537497       6.49783842       6.00719039
X          1.05256958       5.55478826       6.94813391
X          4.65240078       5.88476576       4.03837346
X          7.98985260       0.58532927      13.54581686
X          2.79310393       4.65166290      12.67333201
X         10.05788330      11.27544545       4.22060292
X          3.75608574       3.03326539      10.47399508
X          3.10610252       0.60783833       6.29418554
X          3.86409712       6.55283022      13.71545782
X          9.09919730      15.06288250       2.26701473
X          9.34950781       5.91529604      12.93333952
X          7.63195737       7.22883048       1.27727463
X          4.08448588      15.75996385      11.68087298
X          1.20341448       3.93239604      10.47708880
X          5.64713156       8.83031641       3.10701171
X          4.06941577       4.36782454       8.88744837
X          4.47604212      10.74592945       3.90386733
X          1.31425494       2.52948800       0.64561943
X          1.94010592       7.29735694       6.39250271
X          4.41174724      12.18671775       8.12680384
X          0.80492401      15.08301953       4.81958057
X          3.99233526      15.04888184       7.74057541
X          6.33056069       9.81219059       8.23726113
X          7.51081969       3.38663841      14.68444704
X         10.98405324       3.33900699       5.01782609
X          7.49836221       1.68332890      11.49500795
X          7.03393460      15.68888229       3.49004980
X          4.43399197       0.14554778      14.38634653
X          8.61657476       7.92709975       3.34916290
X          4.39579243       1.36137963       3.90242816
X          6.83799438      14.57104208       5.94295688
X          5.09482668       4.14871348       5.65498334
X          0.95430793      12.69233283       2.76131726
X          8.32734961       5.52779725      11.07335225
X          1.77202197      11.91795770      12.61969898
X          9.24698172       2.87696910       6.80135171
X          4.63916476       8.19695881       8.55762738
X          9.66432345       6.80193127       1.42463284
X          1.84724652       9.04952812      13.28569345
X         10.07800153       5.75094370       3.93594450
X          9.60662181      11.44284703       8.09303434
X          1.49775123      10.82316463       3.28243577
X          4.08334497       2.27347782       6.71882377
X          5.34777988      10.44270944       9.90778827
X          8.36601513       1.13111117       7.23167884
X          3.59154251       1.94255959       1.94095225
X          6.00881310      14.82279731       0.90976720
X          7.19665316       2.48689122       4.26529636
X          2.02776667       7.27455070       0.90156991
X          5.58614891      14.32709779       9.76770467
X          5.70535024       3.67935098      10.08559024
X          8.77993642       7.15669574      11.66833491
X          7.14172321       4.53038711      12.74537149
X         10.36785809      12.20745858       6.30620650
X          8.66503005      12.15277303      12.78194349
X          0.54530084      14.83744003      11.26816882
X          6.46509552      12.64383687      11.48590526
X          6.93804227      10.15310842      13.14273284
X          2.56923769       6.35341394       8.31662897
X          2.94539701       1.21316018       8.07462680
X          4.66337677       8.70916530       8.64819245
X          0.68998236       5.53847267       6.53267952
X          1.71986200       7.23655350      12.58448336
X          6.75855592       8.09117130       9.86229281
X          1.21063616       2.84518232      12.54584922
X          4.96528147       6.93291358       0.78035105
X         10.10454596       6.49242342       1.53652294
X          6.22624720       9.47778721       5.07816112
X          9.27632473       3.35868725       6.53912135
X          7.60422433       4.36611071      12.87887607
X          1.77351835       1.87776588      11.16904316
X          4.95794821       4.09918281       4.88122438
X         10.43217338       6.18246886       3.89026974
X          4.19466129       6.52173683       4.25797084
X          8.59426488      13.88880504       7.71950652
X         10.69837291       7.62880331      13.97773475
X          5.51369103       3.07609870      13.51047042
X          8.21400142       5.33981667       1.95683251
X          0.77412868       9.86915389       6.12126261
X         10.79014524       5.52484635       9.66388370
X         10.07980866       0.49816119       0.56029581
X          0.99595754      14.91466744       4.24871501
X          4.13051982       1.55620529       4.35244939
X         10.56774148      10.81280140      10.23039744
X         10.76424942       0.39181827      10.25421372
X          8.31576058       2.47518747       8.86922400
X          7.56946021       9.80949789       0.92372408
X          0.37843567       9.24633707       0.97677281
X          5.64930875       4.52466662       2.71718701
X          1.36427719       9.37993597       8.75366908
X          5.49429189       9.24377502       2.84189373
X          8.38202056       6.79430102       5.48479020
X          9.67427203       3.00496390       4.09257153
X          5.87373788       3.93145202       9.62645668
X          8.08168146       1.27555589       2.31003961
X          2.16621151      15.56960103      13.58701393
X          9.77161571       7.74868754       9.27782685
X          1.70575804       3.62862863      11.13669977
X          2.63646612      13.48146028       3.18014047
X          0.19497981       4.00287253       4.61342532
X          5.79151539       8.29780376      14.51909293
X          2.12654044      12.31071813      12.38864666
X         10.46160718      13.87295319       0.32666752
X          6.55346094       2.56203826       6.17309673
X          7.01788261       9.82289360      12.54678382
X          3.01843811      11.28835778       6.74736051
X          3.39344499       4.76439802       1.05094099
X          4.39620363       0.64020620       9.83231948
X          1.23365641       4.14545158       2.38863094
X          7.41905832       8.01757821       1.42222414
X          4.05975266      13.10312630       0.64603138
X          1.78187104       7.01189584       1.33328794
X          7.33192093      14.35611231       6.25910463
X          8.50205972       7.82544948      11.43858854
X         10.77820361      13.01271558       9.60067186
X          6.47620743       2.25657383       4.64582814
X          9.19607899       5.87039287      13.42974345
X          3.33534417       7.12354111      11.58934971
X          7.90490437      10.84413724       6.50953999
X          4.86398937      13.92061727       4.41824680
X          2.80907064      14.11611367       7.16410434
X          3.23515927       5.90260141       5.78467209
X          9.43376146       2.64756213       0.46017449
X          8.77765569      12.04162246      11.09651994
X          1.54527900       9.52833830      13.78298746
X          3.62764674      10.95987875      13.18901122
X          2.89009834      15.90893984       6.63741907
X          4.66309542      15.60437575      14.41437384
X          4.86050867      12.54699107       5.35547611
X          3.81620537       6.13980076      13.33269723
X          6.77508762      12.01837576      11.54870086
X          1.59783795      10.87406197       3.78782770
X          8.08890585       6.04153114       8.11813829
X          1.15193671       8.14705436      10.98421245
X          7.59886157      10.06397526       2.77850711
X          5.95643270       5.82111281       7.42422232
X          5.98650374       1.11367430       5.59148540
X          7.45809108       2.02396503      11.89524587
X          5.08336921      11.13705804      10.13592328
X          7.91682396       9.45010808      11.22936189
X          1.66292641       3.02032830       1.10327027
X          7.42986398      15.33952738       8.16146236
X          2.02554006       2.65041059       2.81264244
X          8.31936925      11.76558579      13.03166757
X          8.18212338       8.12047807       2.87059863
X          1.62788315       3.02835769       6.65253102
X         10.28797935       2.61509268      10.98142317
X          3.12459309      15.96474532       2.48643154
X         10.16521342      11.06275824      14.36266402
X         10.46858831       8.30020369       4.36606443
X          9.55035032      12.08813751      10.36868159
X         10.25949870      10.71158901       4.30727119
X          2.28032344       9.52900787      11.70323103
X          2.41357244       7.46316981       5.83457832
X          4.55486896      11.56713721       3.89017706
X          6.86642985       9.96973684       7.49646928
X          5.79279434      14.15315712      10.54273399
X          2.77193852       0.46791759       8.14869319
X          3.26631690       2.84267122      11.05784361
X          8.40938990       0.32642881       7.13849656
X          8.32241417      13.22365381       3.19022886
X          8.08453248       1.02546308      14.12137929
X          4.26608983      12.14004487      10.65911453
X          8.94026988       8.26402372       5.42624541
X          6.60253804      13.36345844       2.60014643
X          0.37429495       3.46198928       7.81876761
X          0.70803290      15.36676154       1.37539128
X          3.23209933       2.64833786       1.88567435
X          1.55254939      15.21881287       7.29310460
X          2.58485121      11.33135324       1.42578603
X          6.32784190       5.88574932      14.69949581
X          9.34407725      14.97436611       6.36259367
X          6.88503793      15.06472673      11.69247243
X          1.60049266       6.52147582      12.44178792
X          3.58499680       8.15676204       4.56232188
X          9.04144756       0.74297403       4.05807518
X          4.23314731       5.29505792      11.25231871
X          4.46098108       2.93009115       6.84117001
X          2.44550576      14.87278671       8.77779494
X          3.65420142       0.16892508      11.27307836
X          7.64079335      13.27129677       1.48527284
X          9.82792137       0.85508366      11.54889425
X          2.55385779       3.83372769      12.48114725
X          7.14033346       7.55374634      12.51553060
X          2.79097102       2.00726311      12.82165511
X          6.95331907      15.39105627       3.98884402
X          7.65734538       2.75755341       0.21264061
X          2.71977559       6.97371908       4.26681231
X          9.47980822      11.64146978       1.19337400
X          2.90525086       4.01991704       3.03561992
X          7.03437260       7.65261736       7.44822589
X          4.68395664      14.89598779       8.13605336
X          4.31249719       4.26912112       8.00890910
X          0.44935758       5.38586038      14.13734605
X          1.07675858      13.53495115       2.75660093
X          8.60109233       5.90881763      10.29122510
X          5.95583731      14.18939765      13.73491193
X          8.81113729      15.50345843       2.19201703
X          0.15869874       0.78345656       5.71299286
X          2.10419376       1.22663204      10.65349942
X          4.65868136      12.16832867       8.96781653
X          6.54986923      14.53607217       1.53075170
X          4.95154860      11.58020024       0.22614955
X          9.89319173      11.45670407       8.97173700
X          8.85219505       1.75631066      14.81355937
X         10.69247416       1.29803291      10.89493437
X          1.85938496       8.50215744      12.19207913
X         10.11884524       2.19664238       4.86652081
X          0.63372693       7.54859824       2.21955374
X          9.28429572       7.47758066       4.87848565
X          2.93671943       7.92846555       9.57781359
X          7.36006769       9.70782793       6.60488342
X          1.77888162      14.57687383       2.77883295
X          6.07888149       7.07158872      14.60491220
X          6.22664959      14.07855750      11.73474219
X          9.36028510      11.85156575      14.76866038
X          2.05664725       9.44402436       6.75162364
X          3.84972274      11.85585072       0.26695061
X         10.28832219      13.48197823       4.64651352
X          7.42047179       3.48934209       2.43739247
X          1.03974300      13.91469841      13.04799085
X          0.65416495       7.58224219       2.22775306
X          4.74562791       4.31860263       6.95729941
X          7.35448790       9.07584002       2.12733412
X         10.23149216      11.85224583       9.85476138
X          3.74928051       3.00657496      14.46504053
X          7.68160749       3.46828743      10.48813543
X          7.45799449       8.61692701      11.61143480
X          3.35018497       0.80482512      10.17394625
X          9.18847438       6.65726217       9.70062178
X          2.95172158       7.88058671       9.56648942
X         10.27904725      13.49844774       4.64199918
X          9.35777795      11.85211192      14.76539301
X          1.89961714       8.47133682      12.18143607
X         10.08256052       2.20392641       4.89519186
X          0.99048719      13.89307956      13.02372991
X          7.47622488       8.64327051      11.63999635
X          4.68902379      12.77794508       4.15295569
X          9.14457876       6.69969752       9.74658900
X          2.03262057       9.45688051       6.78204522
X          6.07299553       7.06608094      14.60889468
X          3.74199256       3.01557786      14.46987398
X          2.90173173       7.90550215       9.57651154
X          0.38696598       3.61940379       6.71432925
X         10.93281072       6.47772575      14.11000514
X          5.06828563      12.02532236      10.09490871
X         10.27839085      13.47678770       4.64872600
X          7.43291841       3.48226829       2.40753563
X          3.85436535      11.87546837       0.26228574
X          4.74639918       4.32841701       6.94358904
X          7.35380918       9.73092301       6.57666327
X          7.66903876       3.47889597      10.53790417
X          4.67812331      12.80147098       4.14874469
X          5.08114002      12.02027128      10.07602507
X          0.40256848       3.65949108       6.72601510
X          8.28169499      15.07648631       7.24893693
X          3.73671979       3.02448096      14.44875027
X          9.34632867      11.85656889      14.77988724
X          3.29736521       7.05221208       4.81386800
X          6.22761130      14.08200399      11.74158176
X          9.26347736       7.47312430       4.88751844
X          7.67247443       3.48918072      10.51915173
X          9.24181488       7.50881258       4.87278861
X          3.36184787       0.83272628      10.20077883
X          7.33579735       9.09884411       2.12442174
X          8.84785600       1.73873744      14.86067804
X          1.76016776      14.59306134       2.82265231
X          2.01526843       9.50729033       6.81907129
X          8.31837628      15.04536343       7.31716713
X          1.03204868      13.92613863      13.05691902
X          7.32313609      13.88814563       2.22817760
X          5.80384043       2.19587145       5.32272444
X         10.94188582       6.46575941      14.11764920
X          7.31093356      13.89864289       2.24141819
X          2.75864367      15.15293224       7.55860739
X          2.23743814       3.52125018       2.18151636
X          0.62434934       7.55884131       2.23705184
X          6.20160449      14.09120960      11.73401889
X          7.40086821       9.07866089       2.12848827
X          7.44316774       3.47531531       2.43300409
X         10.72223594       1.28748287      10.88010337
X          1.76550277      14.59224038       2.81620211
X          2.16007615       2.93205977      11.89398211
X          4.72208164       4.32190475       6.94315405
X          3.36128472       0.84842598      10.20919504
X          4.72286090      12.80297276       4.12174155
X          3.28962200       7.05001652       4.82145371
X          6.07428724       7.08489122      14.61370162
X          2.75749364      15.15634771       7.55121629
X         10.09989987       2.20596204       4.89355085
X          8.57785611       1.74332432       0.21035893
X          1.92595755       8.47724495      12.17997796
X          5.80119027       2.19929006       5.32191674
X         10.68992296       1.28900849      10.91388181
X          2.16035656       2.93501336      11.88883981
X          7.44295819       8.61735891      11.61779536
X          7.39495879       9.67763789       6.54489075
X         10.22648864      11.84911382       9.84155446
X          2.24175999       3.52160518       2.18557530
X          9.19367439       6.65690545       9.68828576
X          3.72679814       3.02600017      14.45738936
X          2.93634985       7.88055032       9.57807831
X          2.03752076       9.49685242       6.78365740
X          0.62310107       7.56677700       2.21923674
X          1.06548290      13.88350685      13.02646501
X         10.24327662      13.49630551       4.61097282
X          0.40378697       3.65355032       6.72261712
X          3.86022783      11.83969544       0.28333196
X          7.40396507       3.47312907       2.41645455
X          8.28537539      15.07772693       7.24142360
X         10.20661990      11.85853913       9.86708087
X         10.93190082       6.46536549      14.12826510
X          7.68759821       3.50165847      10.51892943
X          9.36044129      11.85610125      14.73487304
X          9.26709950       7.48099509       4.88188710
X          2.94939169       7.89499301       9.57310679
X          0.71388341       7.52501434       2.31703709
X         10.26707173      13.48444156       4.65424632
X          6.07555879       7.07132242      14.60617012
X          1.00829943      13.96400315      13.03922428
X          1.76567194      14.59832804       2.81641813
X         10.95096024       6.49731523      14.14070175
X          0.41066129       3.67284552       6.72272249
X          3.36638154       0.83803497      10.19821113
X          2.75848746      15.14333656       7.54560840
X         10.09317210       2.19835741       4.90283349
X          4.74157983       4.32058378       6.95218215
X          3.29042174       7.05693348       4.82220498
X          1.90475532       8.46872310      12.18440276
X          7.35978861       9.07848865       2.13327050
X          9.18109097       6.66056636       9.69417141
X          8.84218082       1.74159588      14.85531943
X          7.41290874       3.46535272       2.44848408
X          5.07393660      12.02444804      10.07941121
X         10.71246918       1.31670615      10.90209153
X          7.46270730       8.60968349      11.59364772
X          3.75086056       3.02440691      14.47579445
X          7.35300517       9.71853877       6.57168344
X          6.24629505      14.08036232      11.73469212
X          2.24379341       3.52190478       2.18235875
X          7.31358960      13.89669175       2.23585528
X          4.68682573      12.77528116       4.15161245
X          5.80281556       2.19544470       5.31876350
X          2.15583283       2.92657322      11.88475086
X          8.28122010      15.07924120       7.23016126
X          3.84014729      11.85335110       0.25222935
X          2.00450321       9.46420346       6.81551452
X          7.71132747       3.53407054      10.50909611
Fe         2.24240010       3.52101420       2.18137600
Fe         5.80361270       2.19985970       5.32405170
Fe         0.40381860       3.65722820       6.72142990
Fe         3.36608920       0.83691460      10.19979410
Fe         2.15983280       2.93175480      11.89014480
Fe         3.74405350       3.02019040      14.46401510
Fe         0.63515200       7.56567380       2.22346330
Fe         3.29359620       7.05225100       4.82175900
Fe         2.02268280       9.47221370       6.79226240
Fe         2.93969230       7.89128160       9.56921400
Fe         1.90714880       8.47276750      12.17843840
Fe         6.07381480       7.07133010      14.61110070
Fe         1.76577260      14.59172370       2.81382200
Fe         4.68856030      12.78419860       4.15254960
Fe         2.75749360      15.15205420       7.55150000
Fe         5.07489110      12.02252450      10.07958880
Fe         1.02716250      13.91765130      13.04884430
Fe         3.85037870      11.85596370       0.26802710
Fe         7.42055260       3.48352680       2.41968770
Fe        10.09993590       2.20372940       4.89237750
Fe         4.73990730       4.31837470       6.95244400
Fe        10.69372570       1.29707010      10.89792930
Fe         7.67139270       3.48362710      10.51838610
Fe         8.84374030       1.74172780      14.85848210
Fe         7.36009660       9.07866720       2.13354190
Fe         9.26907520       7.47853650       4.88061110
Fe         7.35152810       9.71728580       6.57405040
Fe         9.18407140       6.66174440       9.69818860
Fe         7.45952700       8.62071260      11.61118780
Fe        10.93755790       6.47314020      14.12585280
Fe         7.31463980      13.89688310       2.23630600
Fe        10.27972610      13.48576350       4.64834670
Fe         8.28831330      15.07770830       7.24503080
Fe        10.23152420      11.85268290       9.85477980
Fe         6.22771230      14.08067140      11.73543440
Fe         9.35843790      11.85077050      14.76723020
O          0.77380020       4.49627800       2.38098120
O          1.85021970       2.10296360       3.21372530
O          3.69500320       2.27094530       1.68380910
O          3.17279220       4.27659850       3.48393980
O          0.27122950       1.19029250       5.63297530
O          3.13605760       4.64514880       0.91925270
O          1.50409130       2.75408740       0.61236090
O          4.40118340       1.65483970       4.17655040
O          0.31187160       3.24974520       8.42303310
O          2.06502630       2.93904050       6.56962350
O          4.48180860       2.41367830       6.79598430
O          3.69919080       2.71780100      10.74710030
O         10.81728290      16.00551420       9.70085630
O          0.65630930       5.45825950       6.82876530
O          0.39590500       3.69385060       4.82748320
O          2.74990700       0.99536400       8.38115050
O          0.65526030       2.71907430      12.85508050
O          1.63243220       1.39192050      10.88905000
O          3.78465830      15.81879510      11.64810110
O          5.33210860       3.27386910      13.63460220
O         10.19798850       0.55436470      14.85923610
O          2.79938290       4.26967930      12.85813120
O          1.53139780       4.07908490      10.70407900
O          3.04007310       1.75289690      13.17571580
O         10.85122710       8.46068120       4.15695820
O          1.89773290       7.02157320       0.98110300
O          4.57315410       6.90604500       1.26956590
O          3.68475300       8.75179720       4.56519230
O         10.22547810       6.07236460       4.10931530
O          1.57371850      10.61125400       3.60928790
O          0.19799670       9.18644450       1.34353660
O          2.08971240       6.83401850       3.68599840
O          1.58125400       9.14054190       8.59224340
O          2.11363510       7.63474340       6.24429430
O          3.30093910       5.57453280       6.16994910
O          4.38614120       8.43925210       8.54504380
O         10.67643580       5.61671430       9.93848820
O          3.12815600      10.88181180       6.80424960
O          0.50113810       9.96107540       5.94407390
O          2.37264340       6.41525770       8.64118830
O          1.90227280       9.30742130      13.76513050
O          1.64412690       6.66159060      12.71838180
O          3.40811590       7.51503180      11.44039960
O          5.62092220       8.79112060      14.44314100
O          0.76402980       4.93763750      14.33832320
O          2.48746280       9.98845390      11.36601520
O          0.91702600       8.00418870      10.68509620
O          4.01300000       6.30591570      13.66991460
O          0.88269970      14.79674620       4.52364670
O          0.66087080      13.01233860       2.73958680
O          2.36554190      11.47062670       1.21783960
O          4.85782430      14.53246530       4.48674040
O          9.97811670      10.97454240       4.19924070
O          3.07716690      15.79319530       2.76792800
O          0.64077300      15.41199980       1.68761110
O          2.93660690      13.07457880       3.31910300
O          2.37674960      14.79880170       9.35884950
O          2.73929810      13.47339830       6.89777010
O          5.00713250      12.38551620       5.85026100
O          4.54931580      14.97560600       7.74082860
O         10.86103020      10.39072010      10.52780620
O          2.92167440       0.27269650       6.10325040
O          0.96075970      15.22359530       7.24490290
O          4.69057540      12.30530220       8.41766170
O         10.57894790      13.88553190      14.69805620
O          1.74725380      12.26103710      12.74808560
O          3.67242510      12.35223400      11.07711450
O          3.99095060      13.59572580       0.68348570
O         10.57248360      10.75500150      14.08071020
O          2.15771660      15.22369570      13.69050820
O          0.63713510      14.52052930      11.38492750
O          3.98828170      11.01848100      13.35134660
O          5.71126550       4.17240060       2.60147170
O          6.97920110       2.30821870       4.12007990
O          7.91590040       1.53696810       2.01922250
O          9.42986260       3.39259240       3.65563410
O          6.04842070       0.54642980       5.83761810
O          8.19576050       5.16130480       2.28435620
O          7.30228550       3.12548500       0.33851650
O          9.42716540       0.76154900       4.08919600
O          3.90976520       4.24200820       8.52709500
O          6.86221070       2.84831430       6.66972700
O          9.46670910       3.14351420       6.55582920
O         10.05572990       3.03896160      10.90448910
O          5.03185050       0.67172030       9.63247120
O          6.00052930       5.53384660       7.28183430
O          5.25680490       4.04928680       5.15075320
O          8.30714520       2.80095470       8.91467820
O          7.47057920       4.50643430      12.60821830
O          7.29310420       2.01539850      11.57652230
O          9.53076990       0.61860720      12.01052320
O          9.73040730       3.07845310       0.56321610
O          4.62057030      15.96705760      14.22653660
O          8.22228090       5.42594940      10.67027280
O          6.00138850       3.90136490       9.95190260
O          7.74820340       0.71373110      13.86587860
O          5.66625870       8.90746360       2.75061970
O          7.44544420       7.52421350       1.03545430
O         10.08115930       6.74486050       1.36938500
O          8.83625190       8.84066030       5.84303460
O          4.71332390       6.32210680       4.05777990
O          7.64829770      10.50845310       3.13544450
O          7.65523730      10.05312310       0.52211200
O          8.41551620       7.79396090       3.14760840
O          6.52909070      10.19286480       8.12032850
O          6.79467890       7.96252700       7.44536680
O          8.00269440       6.40721080       5.60938910
O          9.94090030       8.19805000       9.06558470
O          4.03912320       5.28772120      11.03748300
O          8.09112900      11.32215270       6.34910550
O          6.05051000       9.59001320       5.31514700
O          8.48819910       6.04951900       8.15630490
O          6.89669060      10.18719430      12.73850170
O          7.02801180       7.12873880      12.81120990
O          8.92694060       7.48166890      11.43594340
O         10.55078050       8.19927610      13.84904140
O          6.51330590       5.39518010      14.78591930
O          8.28004590      10.05357070      10.92086710
O          6.55146770       8.15168070      10.09002670
O          9.49503440       5.78678690      13.28956280
O          6.10667440      12.90981550       2.88883010
O          7.76745650      12.91380450       0.93832240
O          9.72877810      11.52073630       1.71219270
O          9.70915560      14.93170680       5.97906180
O          4.46169580      11.06992020       3.64617270
O          7.13945100      15.44753000       3.63614850
O          6.24024860      14.98764300       1.24363150
O          8.63357580      13.04741330       3.55733610
O          7.11619450      15.44401870       8.55191380
O          8.70906620      13.45955120       7.95436540
O         10.46235810      12.51583300       6.16945230
O          0.24641230      13.24364600       9.13328730
O          5.13623610      10.40056240      10.20152810
O          8.59664980       0.81848750       7.07715320
O          7.12577180      14.26850430       5.99852450
O          9.74787270      11.12056030       8.35306950
O          5.99864340      13.89189780      13.44598090
O          6.54747860      12.26465280      11.31027430
O          9.04257520      12.38513000      10.95323330
O          8.93497210      15.14136880       2.04909420
O          5.55074380      11.43320370       0.35409420
O          7.30566080      15.40593940      11.57083060
O          5.46094360      14.10990690      10.09932600
O          8.47243860      12.08580910      13.21796890
Si        10.60081570       4.55180200       3.85576270
Si         3.33703170       1.35237920       3.02927340
Si        11.05076460       4.08554850      10.10380490
Si         3.01563890       1.71065850       6.90924370
Si         0.54160450       3.34500150      14.37076170
Si         3.32118060       0.13828410      13.20070140
Si         0.26772860       9.96710240       4.36636810
Si         3.24674330       6.25283020       0.59636760
Si         0.25685840       8.91837190       9.52951900
Si         2.06559250       6.20242290       7.09188400
Si         0.40018430       9.39171580      14.41159300
Si         3.18661040       5.98859180      12.26431250
Si         0.29175050      15.60555550       5.81954320
Si         1.91754720      11.89623010       2.71200950
Si         0.79445730      14.63030730       9.80121510
Si         3.86713980      12.27218060       7.01268940
Si        10.25133020      15.20660560       0.99728380
Si         2.91408660      11.33867430      12.17054140
Si         4.73052110       4.71406540       3.72466240
Si         8.30556270       0.36677210       3.03006920
Si         4.44158400       4.05756960      10.08255370
Si         8.24982430       2.37336680       7.39257480
Si         6.70286090       4.02288830      13.95126990
Si         7.91787380       0.73800280      12.25045110
Si         5.02582600       9.59053870       4.08308110
Si         8.54995090       6.65411970       1.93671110
Si         5.94893330       8.75415620       8.70826860
Si         7.33723900       6.42535480       7.09888840
Si         6.52020680      10.11169640      14.33557950
Si         8.22688880       6.01333550      12.27558320
Si         6.24084560      15.17323390       5.02971420
Si         8.92316610      11.48591760       3.11717580
Si         5.58194120      15.29626340       8.94234080
Si         9.23441370      12.14881990       7.15431950
Si         5.11653750      14.64856860       0.12326050
Si         7.88383260      11.38308200      11.85461210
