   792
 Wannier centres, written by Wannier90 on21Jan2025 at 00:04:49 
X          6.63399001      10.44475228       8.18253462
X          2.69232995       0.16196870       5.98235789
X          3.98656502      12.40668315      11.16073130
X          2.48181937      13.43628574       6.83385677
X          8.33895043       9.95716431      10.67067487
X         10.02811710      11.16750371       8.43472491
X          1.60962866       2.23735875       3.31543255
X          0.84735426       7.77826904      10.74723613
X          4.81355246       6.97750543       1.39789785
X          5.20361628      10.17194795      10.15525710
X          6.97515506      14.26992309       6.22504060
X          0.50281661      13.03792551       2.53759763
X          0.85110246      15.04904588       7.44402399
X          5.49389566      11.65141690       0.19717179
X          1.89095792       9.00483017      13.74814628
X          0.53276778       2.49121094      12.73987974
X          1.46774700       2.51584873       0.71069919
X          6.41210601      15.17665499       1.28792142
X          5.93096323       0.54832434       6.06654574
X          9.64087765       2.88286107       0.76172495
X          9.10313175      12.63119099      10.85299577
X          2.57605207       9.91940366      11.09983338
X          0.60269374       3.61152938       4.72080170
X          9.74703033       8.23713343       8.90716264
X          2.51287634      14.57341113       9.33301642
X         10.50140047      10.76613424      13.82302313
X          9.95045864      11.52049954       1.62134885
X          4.69184945      14.29260693       4.64497123
X          4.44716951       0.11074586      14.40552181
X          1.80281496      10.46957801       3.58108977
X         10.31729121       8.08568522      13.77975669
X          9.15788105       3.30835067       3.46923178
X          4.54689721       6.53449319       3.92644745
X         10.56015154       0.09267095       9.61332138
X          8.02268146       6.70731230       5.40392235
X          9.08907886       7.65679332      11.50655489
X          3.73240709      13.62302566       0.75755083
X          7.57997503       0.85974967      14.00154767
X          7.47075199      10.45932611       3.28784419
X          1.48416482       4.03270687      11.02554024
X          5.39716087       8.73425522      14.53131637
X          8.44411517      13.47451708       7.87272379
X          4.54490671      14.85591302       7.51562743
X         10.84810258       9.19862592       1.70462087
X          3.98912005      15.63938814      11.58374408
X          4.95632198       0.89371315       9.52024101
X         10.62161851      10.46524762      10.65716672
X         10.80894776       5.66162788       9.70901036
X          2.93715571       4.37578529       3.24522685
X          4.25106653      10.96906702      13.35807174
X          2.38826837      11.72744130       1.05676274
X          9.75466433       3.03662245      10.92160559
X          0.37492539       1.39920708       5.77218595
X          3.87109052       2.42314561       1.81271663
X          7.72048076       9.82417708       0.38542600
X          2.49392802       1.03050159       8.38399502
X          7.93095715      11.37755005       6.16769945
X         10.12162686       0.67472954       0.37578651
X          4.54908337       2.30167655       7.03294983
X          0.48059643       5.47404785       6.63294511
X          4.94629075      12.14078886       5.73756941
X          3.59941184       7.66902015      11.46828952
X          3.71320560       4.11998095       8.39404244
X          0.83820684       4.99955714      14.03051354
X          7.33145102      15.39283807       8.68346984
X          9.73649316      10.93013967       4.34781910
X          7.52812756       4.32901970      12.31660243
X          4.34134349      11.12418565       3.41142997
X          5.74391377       8.65849530       2.66677098
X          3.98458062       5.32328210      10.73521167
X          3.66010110       5.34570754       6.32126717
X          5.47405256       4.18768213       5.15885082
X          3.47476735       8.74987361       4.42153982
X          9.67313413       0.85467678      12.11543603
X          6.11645002       5.53484694       0.35176639
X          8.39533218      13.27380875       3.28169898
X          0.60373862      10.19345948       6.04447193
X          6.66327084      10.20952326      12.64962603
X          8.67981640       6.27671053       8.11594390
X          0.81721996      15.61337270       1.72094711
X          1.89483665       7.65779788       6.13262180
X          9.62109735       0.63126308       4.20157074
X          2.19547307       6.41608736       8.85069612
X          7.10743411       2.09240380      11.71543857
X         10.56864520      12.40865973       5.90681214
X          0.73716813       4.45302080       2.13520601
X          0.40761327      13.01134185       9.15178097
X          2.11216235       3.21230000       6.63619351
X          5.21264000       3.14666744      13.45846986
X          9.39309279       3.37953338       6.46139640
X          6.45861987       7.94622133      10.23527830
X          0.35264180       2.98985728       8.40517689
X          4.23620886       8.42325115       8.32851318
X          8.18522970       5.03304467      10.58482629
X          8.30382238      12.26124617      13.28334429
X          2.29474629      15.00712572      13.79090909
X          6.63835180       3.05191760       6.75875562
X          1.89604159       6.97577944       3.47369601
X          4.35698561       6.38320179      13.74411245
X          1.49592637      12.20425059      12.71666638
X          5.79760136       4.19700294       2.34682638
X          8.82602464       0.80068932       6.89392639
X          3.16281261      15.54034239       2.70970265
X          9.52605038       5.87221366      13.60831916
X          7.31077191      15.27539500      11.33170566
X          7.59970654       7.60639045       0.88416751
X          7.18015099      15.13275139       3.39364321
X          6.92335982       8.29067195       7.23161310
X          9.63877374      15.14132830       5.81259352
X          9.07958547       8.89849049       5.78214452
X          3.85064357       2.63845872      10.91642244
X          5.33308420      13.76827060      10.10480038
X          8.60947543      14.89463514       2.04283696
X          7.08222461       7.50756318      12.55328045
X          7.69904147       1.36388156       2.00612030
X          0.16073882       8.24576708       3.58280336
X          6.27752601      13.89023479      13.26184982
X          6.50708746      12.91871473       2.80778235
X          4.97645238      12.25656829       8.54426469
X         10.06210721       6.48450595       1.50661020
X          4.73319978       1.78001889       4.44756147
X          1.68434787       7.08376228       0.79742802
X          0.61579896      14.77761438      11.48782743
X          5.85568103       5.52035339       7.51449296
X          6.88750341       2.02178743       4.32573977
X          6.06726120       3.76382851       9.73196528
X         10.39546515      13.55767782      14.69870441
X          1.25919308       6.60116931      12.93417888
X          1.63142808       9.36789408       8.66459128
X         10.48927211       6.18420090       3.92565583
X          2.69366851      13.44250011       3.27243874
X          8.07699506      12.80660296       0.76368010
X          2.94524247       4.03481698      13.15128165
X          7.62028346       2.81136024       0.25872685
X          8.38200398       5.13229710       2.50301329
X          1.95307083       1.19791625      10.72282312
X          3.16606560       2.02767525      13.49858823
X          6.35290852      12.27266832      11.47197189
X          3.20559345       4.34331582       0.60420725
X          1.01483375      14.63453590       4.64358951
X          3.30340008      10.71072420       6.93580955
X          8.57972551       7.77852992       3.58078822
X          8.37823960       2.54693787       8.99967260
X          6.01622966       9.46719181       5.58493804
X          7.49264347      15.58983036       3.68751082
X          7.00721186       7.91101601       7.62554355
X          3.83188220       6.53908125      13.70509185
X          8.80858926      15.50792035       2.17880733
X          3.29570887       1.66791643      13.05294248
X         10.20353854       6.70595791       0.93601762
X         10.64410218       8.52260423       4.04468233
X          5.74203045      14.08299286      10.16406721
X          1.78808006       6.74972839      12.88779870
X         10.05845068      11.31082328       4.18796261
X          2.91928656       4.90296485       0.81933881
X          7.56577251       3.38821408      14.73343091
X          3.58846523       1.92649151       1.87095167
X          6.28940043      12.20567820      10.95272261
X          2.92393036       0.98169575       8.79326180
X          4.63326445      12.16164454       8.86048572
X          7.14460360      10.48503663      12.61317179
X         10.12587992       6.29775922       4.41959343
X          7.06187627       7.43522265       0.85509116
X          0.51229104       3.41972593       8.07301898
X          5.06225423       4.13121269       5.55512630
X         10.50989353      14.00461943       0.32823622
X          7.85296994      10.37684278       0.54043337
X          2.19935253       8.00938906       6.40125542
X          9.81992068      14.56774522       5.69836981
X          8.81030036      12.15688840      13.31628852
X          8.33425217       5.52442267      11.06323319
X          7.83905055       1.93063420       2.12683736
X          7.23717383       7.17925827      12.93649776
X          1.75093251       1.71253392      11.19344449
X          3.61044728       2.28686665      10.54562769
X          0.75595675      15.11512411       4.73053195
X          3.09188506      10.77027711       6.54164856
X          3.05853870       5.73114985       6.48768724
X          4.04590158       4.89473474      11.02326890
X          8.63175735       7.81577253       2.94175838
X          1.65049545       9.17204446       8.14542502
X          0.47311526       5.26378388      14.23281497
X          9.22489355       2.90073802       6.79760193
X          4.15455612       1.48840016       4.30408490
X         10.07482919       0.71058248      14.61055577
X          4.34244361      11.33712911       3.89551602
X          1.13543326      15.45616002       7.31692184
X          1.18295558       2.96171313       0.42841706
X          7.67550044       4.87001606      12.62050462
X          0.93654908      12.68785773       2.76139173
X          6.33329872       9.81291696       5.55923352
X          0.36959210       3.71264960       5.25001451
X          8.78176167       8.63979355       5.46545359
X          2.19227669       9.96875671      11.46909275
X          4.08521089       2.31988090       6.73009911
X          3.50722787      12.02641738      11.29991354
X          8.35460515       0.69626809       6.92341005
X          1.49255940      10.79572257       3.28080795
X          1.14901084       2.72357058      12.66919688
X          6.90035086      15.26792314      11.60174260
X          2.03269505      12.11842687      12.49640799
X          0.84006357      14.33533715      11.74361853
X          8.72473582      12.67125609       3.38270927
X          5.83321203       5.10528202       7.18909441
X          4.42126052       6.56044844       1.19062047
X          2.97942150      13.04518672       3.08460751
X          6.15874512      14.82173836       0.87629460
X          0.16820776       1.34985668       5.24543949
X          1.72282148       6.83117131       1.20836015
X          5.85286725       8.52918821      14.66247249
X          2.86238497      13.84858213       6.83729043
X          2.42350777       3.92695088      12.66233835
X          9.39152360      12.23975458      10.92983759
X          3.56707508      15.88504637      11.99447296
X          8.05222793       5.51401318       2.23749740
X          2.73404097      15.68511125       2.59494698
X          6.27597298       0.74001177       5.76684935
X          5.00905568      14.11535460       4.33613035
X          1.67327671       3.64719830      10.94134417
X          7.56689589      13.27852143       1.10242037
X          4.34273198      15.88125847      13.93081307
X          2.89878643       0.67596366       6.28249353
X          5.03295142      11.45818928       0.31785744
X          4.02279133       4.50020560       8.29151843
X          7.41709553       2.34204313      11.29256590
X         10.13078822       3.04030740       0.42878566
X          8.36320117      11.51533725       6.60175798
X          2.61382788       6.95886164       3.94439310
X          6.95080209       2.56855928       6.85938382
X          4.65837038       5.92588501       3.91964506
X          7.33103892      15.33286434       8.15481823
X          4.05870856       8.85823813       4.43712236
X          5.87405618      14.08844323      13.77092747
X          7.52571364      10.39452821       2.78182113
X          9.74795804       7.88520664       9.36018327
X          6.68429457       5.72259505      14.72371787
X          6.42547299       8.38825228       9.76941643
X          8.50471551       2.98609586       8.88937312
X          4.77758799      15.00551907       8.08250842
X          2.17399409       2.65978466       6.83649086
X          9.45011797       3.33444163       4.02123392
X          5.64876245       3.81872901      10.12367193
X          5.61542784       4.44923510       2.86300101
X          5.28690286      11.02655865      10.15822229
X         10.28292046       3.28551221      10.64196945
X          0.21489089       9.18253876       0.91453970
X          7.82192014       6.47388330       5.98971445
X          5.68017333       3.47608801      13.71595222
X         10.50549590      11.11613663      14.27573461
X          9.63018934      11.42429689       8.08605975
X          0.70194379       8.30127524      10.47789645
X          0.47432335       9.93337170       5.53156321
X          3.04943610       3.97866863       3.05670660
X          6.46553239       9.82478276       8.34165366
X         10.98380645      15.64906490       9.82654377
X          8.88033273      13.18679995       7.67337790
X          8.10357850      10.39052116      11.09926898
X         10.68980315       8.49247816      14.10979640
X          2.82487731      11.54751739       1.11458187
X          9.61278343       1.18171604       4.13988328
X         10.65486638       5.75700786      10.16049707
X          4.28222412       8.66338659       8.74940378
X          1.95244744      14.77675292       9.41736133
X          1.09421192       4.57694982       2.43611933
X          0.31526782      13.59559808       9.31792558
X          9.20997212       5.95712800      13.04305167
X          8.53668740       6.26376426       8.59869000
X          3.31982550       7.13099804      11.59611505
X          6.94468332      14.56051341       5.73362179
X          9.49861913      11.48506628       2.05690050
X         10.90715017      10.06646199      10.28032347
X          9.76349098       0.84217623      11.61292138
X          4.14649757      13.33264873       0.80857880
X          4.71772089      12.49317635       6.11737519
X          8.76762509       7.16892696      11.66002130
X          1.80035723       9.12054656      13.28789064
X          7.78518778       0.70454380      13.44694638
X          0.32095199      15.28695316       1.44523394
X          5.54355471       9.09794561       3.10801016
X          0.57699118       5.28070405       7.04847686
X          1.91152138      15.29114116      13.79988814
X          6.72829838       2.39983117       4.58991064
X          4.53135621       0.60030495       9.67657287
X         10.12204562      12.39412858       6.37278062
X          3.85349498      10.96626439      13.63176941
X          2.27377266       6.42553745       8.23436187
X          2.22331496       1.89005244       3.25285963
X          6.49010892      13.36456411       2.75280752
X          7.49866964       4.32876464      12.95460624
X          1.61021148      10.89337037       3.77155820
X          0.29672839       3.51126392       8.73449926
X          4.82418479       0.01585211      14.09977786
X          6.58055657       5.05217366      14.59540544
X          4.33874791       7.08417743       1.11469682
X          5.85026523       9.13334460      14.38446256
X          9.87486142       0.17830485       0.28727279
X          4.27912057      13.83898921       0.49610286
X          2.69013987      12.74097695       3.34165482
X          3.85214538       6.11684037      13.98873931
X          7.98189047      10.76187199       3.09930891
X          9.61088974      10.94286231       8.47897836
X          7.26266208      10.10392598       0.37477549
X          8.08450485       1.07129009      13.99371671
X          7.04843013       2.99032668       0.29920208
X          3.64592245       8.70938703       4.85613565
X          0.28456661       0.78358278       5.63899349
X          7.85511452      11.00663199       6.56548975
X          5.94110530      14.10232480      13.00645447
X         10.18356309       8.45636377       9.30570590
X         10.99744909       8.82876695       4.30390840
X          4.73631611      11.39847344       3.68390991
X          4.47545313       1.50275691       3.86421715
X          6.20844824       8.98871592       2.69326051
X          9.09516930      15.07339829       2.26703856
X          1.10945748       8.21348720      11.08895814
X          5.97259074      14.92378090       1.37330582
X          2.86919382      15.99460237       6.60473869
X          9.47891580      11.42012131       1.34146415
X          5.88542600       0.99981866       5.62297503
X         10.77527514      10.45660580      14.31067665
X          6.80812521       9.99690250       7.69680654
X         10.41185988      14.20109638      14.68033453
X          9.69967453       3.73088325       3.64380040
X          7.97637181       9.66312291      11.13587184
X          9.47077231       2.72496535       0.31847181
X          3.13370370       5.43217108       6.04068819
X          9.72493301       0.43537825      11.95462760
X         10.27927812       2.94464385      11.11436618
X          5.15888398       0.31002336       9.49896034
X          4.63718110      12.56433590       8.51199029
X          4.77622707      14.59812361       4.26275251
X          3.81736956       0.13041728      11.56379069
X          1.19534632       9.03929729       8.70546396
X          0.82512485      15.30725207       6.84528947
X          1.68173399       7.10598807      12.53258711
X          4.00293623      11.39703789      13.70614722
X          4.25808206       6.41051627       4.32743206
X          3.16444560      11.26494824       6.87276415
X          1.51483426       9.40563242      13.89405965
X          8.01763661       5.59528088      10.65701588
X          0.68362220       2.87142374      13.24913187
X          0.41929001       9.75624890       6.11669326
X          1.82245516       2.82038945       0.37768392
X          6.66988322       8.40592382      10.48193572
X          2.05072414       2.55784268       2.89883496
X          4.06534159      12.15393009      10.74039757
X          1.80979085       7.27188558       1.28688293
X          2.65659396      10.28625070      11.61683786
X         10.08081173      15.07117803       6.11388093
X          3.29499153       2.57670904       1.82205198
X          8.29619141       7.45560994       3.00670305
X          5.53977626      11.44891225       0.62599414
X         10.27017060      12.81948043       5.76322924
X          4.22842867       4.11089010       8.19792112
X          0.81974850      14.47262820      11.03464647
X          2.82206641       1.99025453      12.87400683
X          2.94759732       7.81773385      11.66593294
X          4.99373282       3.46415742      13.77430621
X          8.53865921      12.95931133       3.79306374
X          8.48842104       7.78899335      11.43919534
X          8.78810962      12.12050735      11.10311982
X         10.83319682       8.08739996      13.66428809
X          2.51464946       6.86204242       8.76791411
X          1.23063497       1.24416599      10.92842667
X          7.04327879      15.68046973       3.47562786
X          5.02261586       4.15086816       4.83924812
X          1.68602736      12.69018320      12.72337462
X          6.57442351      12.75940916      11.38303868
X          8.68651940      13.88793067       7.70621560
X          8.41302128       6.63580380       5.60711103
X          1.05617546       5.60101195       6.88049312
X          2.49351225      15.12209509       9.51207763
X         10.88407834      13.92832863      14.38221657
X          9.85060444      10.92727687       3.84495738
X          3.02028100       4.08697238       3.60507016
X          8.48996483       1.14389558       7.28505465
X          1.94189345      14.93159054      13.40013527
X          6.86588680      10.17204070      13.15724588
X          2.75405185      13.82419590       7.23053472
X          6.99656327      15.70400343       8.49087886
X          5.41123081      14.41811939       9.85387693
X          9.25752324       0.90413761       4.31070098
X          7.19044232       6.81155707      12.60629734
X          0.59760065       4.58280343      14.37625312
X          8.12455026       1.54623145       1.56008052
X          8.31353442       5.07667501       2.04866427
X         10.24828623       5.66508806       4.15102762
X          9.70565575       6.88589128       1.42780896
X          4.26912778       5.37950380      11.16768140
X          7.33746736       3.24467857       0.74326505
X          1.09695200       4.10185637       2.39286846
X          3.13719266       0.16360643       2.82239716
X          3.80518234       3.01956278      10.50019222
X          4.78960259       8.43174958       8.60836251
X          0.30678308       8.70710548       1.48345181
X          2.79223814       0.57543354       8.20575423
X          6.06279002       4.16155448       9.95966214
X          8.39718953      11.83062923      12.90568125
X         10.62311281       5.20146448      10.01226988
X          5.83118535      12.91349493       3.22114591
X          2.10562609       7.33191671       6.52993959
X          2.34441982      11.25247083       1.07546221
X          7.33209765      14.13478782       5.91307700
X          2.09190201       2.80526428       6.30939611
X          5.72164515       5.53700963       7.07680464
X          0.95770566      15.09039073       1.81052265
X          3.87851429       6.14162456      13.31801222
X          9.65882631       5.57574263      13.25519065
X          6.33453839       9.42379580       5.30120326
X          5.21518003      12.53535969       5.73780461
X          7.17034698       2.92116474       6.52720817
X          9.18221879      15.16369056       1.72844060
X          0.97226988      13.37604599       2.73504651
X          2.43315948       7.49870093       5.92747984
X         11.04865702      10.60911470      10.54934574
X         11.00087694       3.33915855       5.01292150
X          6.50627530       8.06455781       7.69946995
X          9.60548142       3.30521103       0.49381084
X          6.15028064       4.00859394       2.70435251
X          1.86298833       8.86283499       8.76061693
X          3.36696260       5.93690263       5.88160872
X          8.10365844       2.77038976       8.57071745
X          4.87101835       6.36970073       4.27355838
X          4.88658006       6.92042574       0.79876476
X          0.50272420      13.07953925       3.10128958
X          1.65563274       3.01535763       0.99523207
X         10.75010058       0.26974410      10.12855842
X          8.14550402       8.12016544       2.98695628
X          6.88603091      12.05044683      11.39245116
X          3.17998168       0.18332707       6.15912564
X          7.95984404       0.57644286      14.02061934
X          8.50413868       5.70303259      10.40077843
X          8.05697124       6.17952142       5.48708548
X          1.79080915       4.15012920      10.68966989
X         10.92668354      13.15199719       9.22719201
X          2.89631239       1.43335898      13.28701074
X          8.36798408       9.95090959      11.17809994
X          7.44507716      15.70285971      11.79492305
X          8.91984470       7.32875370      10.99153409
X          4.49465027       2.88522482       6.84563456
X          9.90465202       3.19917329       6.69984636
X          7.64080306       7.23045464       1.27075797
X          4.61053981      10.71884418       3.81005551
X          8.92361550       8.37922218       5.77706518
X          3.39972557       4.77700730       1.00377014
X          2.78283559      10.66588989       6.90650800
X          6.90162043       8.16092364      10.17195478
X          8.82949804      13.52684105       8.17618784
X          3.55412072      15.97446802      11.28480638
X          9.72031492       3.07061905       3.80418078
X          7.41637973       7.89101791       1.31607802
X          2.74506743       3.83326806      12.45148236
X          7.60403052       1.96538253      11.77684465
X          6.03842094       0.25178275       5.54074988
X          0.42988526       9.24774772       1.46430159
X          9.54797092       0.79225454       0.37246325
X          9.19264177       0.71303136       3.75951636
X         10.11601183       7.93755302       9.04204625
X          7.93433658       4.81032657       2.32766801
X         10.14642386      10.87684322      14.31225643
X          2.12603135       9.43633414      13.69177396
X          1.08563123      14.81882836       4.09393371
X          8.61384964       5.82610748       8.25174887
X          4.72350087       2.33820215       6.44262805
X          4.11268477      14.91526580       7.83860376
X          3.70775507      11.13267822      13.06500083
X          2.45439456       9.59513662      11.62882155
X          5.20356367      14.67632375       4.67766852
X          2.30587413      11.56859569       1.62533211
X          8.19445340      10.97666153       6.28962253
X          4.89561922       0.67043408       9.91861960
X          2.27104128       6.87353030       0.91182513
X          6.80313094      15.20680266       8.58417361
X         10.69725084       7.79362456      14.05073317
X          3.08223927      13.21069930       6.96071332
X         10.82182861       1.31263463       5.84798837
X          5.55389941       3.91633789       2.70604044
X          3.58063380      12.53329498      10.90126913
X          2.63237804       6.37262719       8.67699303
X          7.03520521       9.80933274      12.58099097
X         11.00348759       0.20703707       9.75150445
X          4.17179551       8.19341307       8.83946616
X          6.50559788      14.61628689       1.49940389
X          5.78848658       9.09773144       2.52209475
X          7.76046247      13.19574207       1.47995116
X          5.34687638       3.60685914       5.16522863
X          7.77311031      10.11785652       2.99939583
X          6.36226309      10.10483375       7.90682500
X          4.79860078      12.53102912       5.36538256
X          1.29693151       8.05228846      10.51612294
X          1.43121234      15.14097562       7.21378358
X          3.29624391       2.79468300      10.99662383
X          0.96039331       9.80428208       6.04478566
X          7.44018916      14.60797370       6.31260221
X          2.92353327       4.38373296       1.25525445
X          5.54340587      14.20939584      10.54639891
X          7.30947434       1.69968947      11.42269219
X          0.90465294       5.09215136      14.50078186
X          8.08392447       2.97030771       9.26073870
X          2.41724402      14.92965283       8.81908355
X         10.55765450      12.76971315       6.20791539
X          1.53246109       1.57684114      10.73962410
X         10.21386578       5.82644552       9.84037483
X          8.55005127      11.87493555      13.62036652
X          4.50172860      12.14552179       8.12502906
X          6.27411326       5.70453201      14.57979959
X          3.71892211       5.39180109      11.27773583
X          6.37480614       3.75983369      10.18325953
X          1.90191452       2.19245063       2.92989771
X          2.31701286       6.61570661       3.92796877
X          6.73488676       7.11312007      13.09857734
X          0.18318044       3.98596129       4.62576391
X          0.64321010      15.28248728       2.04063591
X         10.63234841       8.22882323       4.40949691
X         10.28179951      10.72226396       4.28334644
X         10.21877668       2.59046447      10.77060331
X          1.56251752       3.04309859       6.62290081
X          8.12464863       6.12561982       7.98120494
X          5.87391596      13.68520014      13.25928351
X          2.40043893      15.48643299      13.48119346
X          9.96226435       6.14938853       3.97927467
X          4.99739576      10.94992952      10.01672383
X          5.81890875       9.69948584       5.02704666
X          9.42166958      14.88804575       6.28497071
X          0.49723275      14.50818475       4.46419864
X          0.70504708       4.94227302       6.75868038
X          7.55368723       9.84715005       0.95185186
X         10.66698996      10.78767332      10.23087987
X          3.96304592      13.17717248       0.41497060
X          5.73503987       8.49940418      14.23759103
X          1.85053741      12.27644200      13.01454730
X          9.54208921      11.81682396       1.50429760
X          4.05954212       4.22563271       8.90243455
X         10.38515779       6.97142671       1.61120925
X          5.66415924      11.08490738       0.13958303
X          3.23644968       7.55948503      11.00496462
X          0.41342131      14.35548501      11.41430497
X          5.15337027       3.09354636      13.95927620
X          6.36703593       5.66893401       7.17394873
X          0.76389680       2.96570721      12.66215631
X         10.90283603      12.93382900       9.67906591
X          2.80394609      15.62446330       3.01524941
X         11.00601839       3.37269090       8.43444108
X          3.32828718      13.05942845       3.53180160
X          9.01638757      13.18660165       3.68476293
X          4.36058528      15.25245185       7.71852918
X          8.56521570       0.40743939       7.25929347
X          4.71901298      15.59636115      14.38977687
X          9.91811581       6.07286662      13.39701990
X          9.13843432       0.63399290      11.97718205
X          0.53175042       4.47486006       2.70695621
X          2.83106084       4.63014310      12.72398599
X          6.77967776       7.61694858       7.26151230
X          2.93810626       1.23980572       8.10764745
X          1.23953501      10.43450893       3.75766563
X          1.19654268       4.00914207      10.47934094
X          9.28023631      12.17081180      10.53937769
X          7.18496887      14.98997111      11.74291578
X          3.65405395       8.23407349       4.58702166
X          3.67330549       2.31735798       1.28400326
X          6.93663469      15.38706475       3.97989669
X          8.47273192       8.96851354       6.03146860
X          9.82089452      11.41268444       8.81112773
X          8.16602873       1.34083965       2.27549347
X          9.59103028       2.84689372       6.11004473
X          7.17013244       4.59846992      12.65764276
X          7.06392619       2.53951944       3.85162340
X          1.88229237       6.38334325      12.51963442
X          3.56986085       4.40333872       3.49077862
X          4.26175552       1.91843404       4.07185485
X          6.14902939      13.05452839       2.59175995
X          7.61339772      12.77737295       1.14027581
X          6.60586488       2.61426929       6.28799767
X          2.37269524       6.98034574       4.18446054
X          5.03652493      10.84170385      10.34054176
X          6.46715528       2.27895642       4.38883070
Fe         2.24240010       3.52101420       2.18137600
Fe         5.80361270       2.19985970       5.32405170
Fe         0.40381860       3.65722820       6.72142990
Fe         3.36608920       0.83691460      10.19979410
Fe         2.15983280       2.93175480      11.89014480
Fe         3.74405350       3.02019040      14.46401510
Fe         0.63515200       7.56567380       2.22346330
Fe         3.29359620       7.05225100       4.82175900
Fe         2.02268280       9.47221370       6.79226240
Fe         2.93969230       7.89128160       9.56921400
Fe         1.90714880       8.47276750      12.17843840
Fe         6.07381480       7.07133010      14.61110070
Fe         1.76577260      14.59172370       2.81382200
Fe         4.68856030      12.78419860       4.15254960
Fe         2.75749360      15.15205420       7.55150000
Fe         5.07489110      12.02252450      10.07958880
Fe         1.02716250      13.91765130      13.04884430
Fe         3.85037870      11.85596370       0.26802710
Fe         7.42055260       3.48352680       2.41968770
Fe        10.09993590       2.20372940       4.89237750
Fe         4.73990730       4.31837470       6.95244400
Fe        10.69372570       1.29707010      10.89792930
Fe         7.67139270       3.48362710      10.51838610
Fe         8.84374030       1.74172780      14.85848210
Fe         7.36009660       9.07866720       2.13354190
Fe         9.26907520       7.47853650       4.88061110
Fe         7.35152810       9.71728580       6.57405040
Fe         9.18407140       6.66174440       9.69818860
Fe         7.45952700       8.62071260      11.61118780
Fe        10.93755790       6.47314020      14.12585280
Fe         7.31463980      13.89688310       2.23630600
Fe        10.27972610      13.48576350       4.64834670
Fe         8.28831330      15.07770830       7.24503080
Fe        10.23152420      11.85268290       9.85477980
Fe         6.22771230      14.08067140      11.73543440
Fe         9.35843790      11.85077050      14.76723020
O          0.77380020       4.49627800       2.38098120
O          1.85021970       2.10296360       3.21372530
O          3.69500320       2.27094530       1.68380910
O          3.17279220       4.27659850       3.48393980
O          0.27122950       1.19029250       5.63297530
O          3.13605760       4.64514880       0.91925270
O          1.50409130       2.75408740       0.61236090
O          4.40118340       1.65483970       4.17655040
O          0.31187160       3.24974520       8.42303310
O          2.06502630       2.93904050       6.56962350
O          4.48180860       2.41367830       6.79598430
O          3.69919080       2.71780100      10.74710030
O         10.81728290      16.00551420       9.70085630
O          0.65630930       5.45825950       6.82876530
O          0.39590500       3.69385060       4.82748320
O          2.74990700       0.99536400       8.38115050
O          0.65526030       2.71907430      12.85508050
O          1.63243220       1.39192050      10.88905000
O          3.78465830      15.81879510      11.64810110
O          5.33210860       3.27386910      13.63460220
O         10.19798850       0.55436470      14.85923610
O          2.79938290       4.26967930      12.85813120
O          1.53139780       4.07908490      10.70407900
O          3.04007310       1.75289690      13.17571580
O         10.85122710       8.46068120       4.15695820
O          1.89773290       7.02157320       0.98110300
O          4.57315410       6.90604500       1.26956590
O          3.68475300       8.75179720       4.56519230
O         10.22547810       6.07236460       4.10931530
O          1.57371850      10.61125400       3.60928790
O          0.19799670       9.18644450       1.34353660
O          2.08971240       6.83401850       3.68599840
O          1.58125400       9.14054190       8.59224340
O          2.11363510       7.63474340       6.24429430
O          3.30093910       5.57453280       6.16994910
O          4.38614120       8.43925210       8.54504380
O         10.67643580       5.61671430       9.93848820
O          3.12815600      10.88181180       6.80424960
O          0.50113810       9.96107540       5.94407390
O          2.37264340       6.41525770       8.64118830
O          1.90227280       9.30742130      13.76513050
O          1.64412690       6.66159060      12.71838180
O          3.40811590       7.51503180      11.44039960
O          5.62092220       8.79112060      14.44314100
O          0.76402980       4.93763750      14.33832320
O          2.48746280       9.98845390      11.36601520
O          0.91702600       8.00418870      10.68509620
O          4.01300000       6.30591570      13.66991460
O          0.88269970      14.79674620       4.52364670
O          0.66087080      13.01233860       2.73958680
O          2.36554190      11.47062670       1.21783960
O          4.85782430      14.53246530       4.48674040
O          9.97811670      10.97454240       4.19924070
O          3.07716690      15.79319530       2.76792800
O          0.64077300      15.41199980       1.68761110
O          2.93660690      13.07457880       3.31910300
O          2.37674960      14.79880170       9.35884950
O          2.73929810      13.47339830       6.89777010
O          5.00713250      12.38551620       5.85026100
O          4.54931580      14.97560600       7.74082860
O         10.86103020      10.39072010      10.52780620
O          2.92167440       0.27269650       6.10325040
O          0.96075970      15.22359530       7.24490290
O          4.69057540      12.30530220       8.41766170
O         10.57894790      13.88553190      14.69805620
O          1.74725380      12.26103710      12.74808560
O          3.67242510      12.35223400      11.07711450
O          3.99095060      13.59572580       0.68348570
O         10.57248360      10.75500150      14.08071020
O          2.15771660      15.22369570      13.69050820
O          0.63713510      14.52052930      11.38492750
O          3.98828170      11.01848100      13.35134660
O          5.71126550       4.17240060       2.60147170
O          6.97920110       2.30821870       4.12007990
O          7.91590040       1.53696810       2.01922250
O          9.42986260       3.39259240       3.65563410
O          6.04842070       0.54642980       5.83761810
O          8.19576050       5.16130480       2.28435620
O          7.30228550       3.12548500       0.33851650
O          9.42716540       0.76154900       4.08919600
O          3.90976520       4.24200820       8.52709500
O          6.86221070       2.84831430       6.66972700
O          9.46670910       3.14351420       6.55582920
O         10.05572990       3.03896160      10.90448910
O          5.03185050       0.67172030       9.63247120
O          6.00052930       5.53384660       7.28183430
O          5.25680490       4.04928680       5.15075320
O          8.30714520       2.80095470       8.91467820
O          7.47057920       4.50643430      12.60821830
O          7.29310420       2.01539850      11.57652230
O          9.53076990       0.61860720      12.01052320
O          9.73040730       3.07845310       0.56321610
O          4.62057030      15.96705760      14.22653660
O          8.22228090       5.42594940      10.67027280
O          6.00138850       3.90136490       9.95190260
O          7.74820340       0.71373110      13.86587860
O          5.66625870       8.90746360       2.75061970
O          7.44544420       7.52421350       1.03545430
O         10.08115930       6.74486050       1.36938500
O          8.83625190       8.84066030       5.84303460
O          4.71332390       6.32210680       4.05777990
O          7.64829770      10.50845310       3.13544450
O          7.65523730      10.05312310       0.52211200
O          8.41551620       7.79396090       3.14760840
O          6.52909070      10.19286480       8.12032850
O          6.79467890       7.96252700       7.44536680
O          8.00269440       6.40721080       5.60938910
O          9.94090030       8.19805000       9.06558470
O          4.03912320       5.28772120      11.03748300
O          8.09112900      11.32215270       6.34910550
O          6.05051000       9.59001320       5.31514700
O          8.48819910       6.04951900       8.15630490
O          6.89669060      10.18719430      12.73850170
O          7.02801180       7.12873880      12.81120990
O          8.92694060       7.48166890      11.43594340
O         10.55078050       8.19927610      13.84904140
O          6.51330590       5.39518010      14.78591930
O          8.28004590      10.05357070      10.92086710
O          6.55146770       8.15168070      10.09002670
O          9.49503440       5.78678690      13.28956280
O          6.10667440      12.90981550       2.88883010
O          7.76745650      12.91380450       0.93832240
O          9.72877810      11.52073630       1.71219270
O          9.70915560      14.93170680       5.97906180
O          4.46169580      11.06992020       3.64617270
O          7.13945100      15.44753000       3.63614850
O          6.24024860      14.98764300       1.24363150
O          8.63357580      13.04741330       3.55733610
O          7.11619450      15.44401870       8.55191380
O          8.70906620      13.45955120       7.95436540
O         10.46235810      12.51583300       6.16945230
O          0.24641230      13.24364600       9.13328730
O          5.13623610      10.40056240      10.20152810
O          8.59664980       0.81848750       7.07715320
O          7.12577180      14.26850430       5.99852450
O          9.74787270      11.12056030       8.35306950
O          5.99864340      13.89189780      13.44598090
O          6.54747860      12.26465280      11.31027430
O          9.04257520      12.38513000      10.95323330
O          8.93497210      15.14136880       2.04909420
O          5.55074380      11.43320370       0.35409420
O          7.30566080      15.40593940      11.57083060
O          5.46094360      14.10990690      10.09932600
O          8.47243860      12.08580910      13.21796890
Si        10.60081570       4.55180200       3.85576270
Si         3.33703170       1.35237920       3.02927340
Si        11.05076460       4.08554850      10.10380490
Si         3.01563890       1.71065850       6.90924370
Si         0.54160450       3.34500150      14.37076170
Si         3.32118060       0.13828410      13.20070140
Si         0.26772860       9.96710240       4.36636810
Si         3.24674330       6.25283020       0.59636760
Si         0.25685840       8.91837190       9.52951900
Si         2.06559250       6.20242290       7.09188400
Si         0.40018430       9.39171580      14.41159300
Si         3.18661040       5.98859180      12.26431250
Si         0.29175050      15.60555550       5.81954320
Si         1.91754720      11.89623010       2.71200950
Si         0.79445730      14.63030730       9.80121510
Si         3.86713980      12.27218060       7.01268940
Si        10.25133020      15.20660560       0.99728380
Si         2.91408660      11.33867430      12.17054140
Si         4.73052110       4.71406540       3.72466240
Si         8.30556270       0.36677210       3.03006920
Si         4.44158400       4.05756960      10.08255370
Si         8.24982430       2.37336680       7.39257480
Si         6.70286090       4.02288830      13.95126990
Si         7.91787380       0.73800280      12.25045110
Si         5.02582600       9.59053870       4.08308110
Si         8.54995090       6.65411970       1.93671110
Si         5.94893330       8.75415620       8.70826860
Si         7.33723900       6.42535480       7.09888840
Si         6.52020680      10.11169640      14.33557950
Si         8.22688880       6.01333550      12.27558320
Si         6.24084560      15.17323390       5.02971420
Si         8.92316610      11.48591760       3.11717580
Si         5.58194120      15.29626340       8.94234080
Si         9.23441370      12.14881990       7.15431950
Si         5.11653750      14.64856860       0.12326050
Si         7.88383260      11.38308200      11.85461210
