Fe  O Si                                
   1.0000000000000000     
    11.4475612883460673    0.0000125305032891    0.7466434409671621
     0.0000131059517894   16.8078006105051401    0.0000027387788166
     0.8707625572944605    0.0000059330834789   15.7431907937771829
   Fe   O    Si
    36   144    36
Direct
  0.1277190982325192  0.2335530163770926  0.1490459530665822
  0.3775360136813771  0.0998104147660460  0.3157545421020083
  0.1277306453433791  0.2334999134687766  0.4824230505102013
  0.3776201119966811  0.0998659115115516  0.6490616525041557
  0.1275097884821645  0.2335686181164477  0.8157381871680072
  0.3775483247445114  0.0998980716716575  0.9824337285021940
  0.1276157247247763  0.5667604647243168  0.1490007757555002
  0.3776265290627521  0.4332225869112769  0.3157588211296343
  0.1275801191752115  0.5667718670008637  0.4823922473227511
  0.3776193140991905  0.4332391537830864  0.6490015140554334
  0.1276307021413624  0.5667797233426930  0.8157581355947431
  0.3775918915469740  0.4332295743300985  0.9823866221202167
  0.1276188155401201  0.9001359544941867  0.1490562360711756
  0.3775080395356135  0.7664295349720577  0.3157408155828469
  0.1275576591470460  0.9001020217829125  0.4824309985437843
  0.3777201121404182  0.7664450064622296  0.6490489890125221
  0.1275416710162204  0.9001883185233270  0.8157523284385032
  0.3777313289496454  0.7665013807332308  0.9824223969893511
  0.6277193497604878  0.2335545913519218  0.1490480439311380
  0.8775367354114756  0.0998104357186898  0.3157550085367954
  0.6277305862575335  0.2334991865932619  0.4824242870083382
  0.8776229351012849  0.0998677258889912  0.6490605540122666
  0.6275088642453992  0.2335684195188949  0.8157387288291026
  0.8775502478424090  0.0998968213394006  0.9824317503195301
  0.6276240439887253  0.5667596592148851  0.1489964387222984
  0.8776249867167478  0.4332200643975844  0.3157575904466797
  0.6275801900247403  0.5667727635007463  0.4823906917433218
  0.8776209832520724  0.4332405916691694  0.6490022325616293
  0.6276350862910366  0.5667796759907109  0.8157557551055390
  0.8775908249943601  0.4332291962021022  0.9823855363198100
  0.6276201838525394  0.9001326759128896  0.1490577968977878
  0.8775076828673446  0.7664308222871929  0.3157407954477916
  0.6275557520772398  0.9001025317304875  0.4824343932191373
  0.8777215551237316  0.7664438418461865  0.6490483288133516
  0.6275365614586748  0.9001897106452084  0.8157545629482371
  0.8777324063690924  0.7665010253533021  0.9824231805012863
  0.1212589978467865  0.2360131496517524  0.2624302434852810
  0.1432366876137950  0.1295770318682153  0.1284236651802000
  0.3710595663323129  0.0974259336668495  0.0958332495781275
  0.3934079879102363  0.2037416756695825  0.2950940238404030
  0.9718152120543343  0.0185761115057622  0.2883053169303004
  0.2222820097297613  0.3146760320556279  0.1216366796128347
  0.0132078280933887  0.2560228998221702  0.0861706615630142
  0.2629789184928329  0.0774829954276654  0.2528652466570153
  0.1212680132965097  0.2360533914021635  0.5958327124396280
  0.1433230467307578  0.1295295263158025  0.4618450069730797
  0.3711312042865638  0.0973189453044736  0.4291552054632741
  0.3934587107421588  0.2037699977440272  0.6283070276108604
  0.9718991615827067  0.0186299993096885  0.6216699449311776
  0.2221004042287174  0.3147018721164574  0.4549607768316526
  0.0132428050093514  0.2558313462532586  0.4194724599248599
  0.2630554622244440  0.0773875167116396  0.5862398918988261
  0.1211939120791466  0.2360717250592244  0.9291086604377355
  0.1431910618276047  0.1296106044175362  0.7952014383313716
  0.3710101664170387  0.0974621422773054  0.7624597735210598
  0.3933920140138532  0.2038400678615324  0.9617511749119343
  0.9719376247394144  0.0186963426162468  0.9549811607098581
  0.2220193434869028  0.3146868632921833  0.7882088795572793
  0.0130503915816537  0.2559944677955189  0.7528020113922999
  0.2630814058896671  0.0774432138974143  0.9195167455370666
  0.1212452190520634  0.5692664409064027  0.2623879802110586
  0.1434099854755729  0.4628145799315750  0.1283592783748396
  0.3712476147311538  0.4308013740485128  0.0957730598709912
  0.3933465660289749  0.5371569765841456  0.2950664627050638
  0.9719552686706043  0.3519832251440727  0.2883546414381164
  0.2219216439067811  0.6479870409817621  0.1215138558123342
  0.0130347460306881  0.5891498718661591  0.0861795144569069
  0.2631933511748610  0.4108519864648360  0.2528366867695381
  0.1212444304084984  0.5691970431599529  0.5957767289899781
  0.1432083067503285  0.4628159399946605  0.4617585920182364
  0.3711134857940101  0.4308340694993262  0.4291380320835059
  0.3934104940026392  0.5371862239102824  0.6283642348391231
  0.9719243462489772  0.3520132898950165  0.6215129254330284
  0.2219507724039779  0.6479600883574048  0.4549342921466311
  0.0131740300389313  0.5892270050173053  0.4194428182526414
  0.2630381899078167  0.4108489332353125  0.5861809211888547
  0.1211142747637320  0.5691675803784839  0.9291400954561392
  0.1433538067347105  0.4628445946632458  0.7950670770697587
  0.3712533557586472  0.4307314972316564  0.7623878949168575
  0.3932124148610318  0.5371796525605731  0.9617535910395585
  0.9719559498965629  0.3520426841728152  0.9549315845196137
  0.2219633746701448  0.6480162583472474  0.7883528049719389
  0.0131944087362357  0.5891482927596134  0.7528366316962396
  0.2631794428266764  0.4107694864049017  0.9194428518773989
  0.1210102606549960  0.9025367367405783  0.2624552539334752
  0.1434634525753946  0.7962324034935877  0.1283029393344222
  0.3712691666047341  0.7639419816096578  0.0958320645909990
  0.3931889584517638  0.8703883182154744  0.2952050334159925
  0.9720174728789877  0.6853114055807586  0.2882097277163052
  0.2218939604744998  0.9813729790633170  0.1216718276110980
  0.0130537615169282  0.9226156230535683  0.0862344389002193
  0.2630520891614284  0.7440080272953236  0.2528035207697134
  0.1210726507519079  0.9025761288017249  0.5958298668807127
  0.1433960334269937  0.7961640644808969  0.4617519730794725
  0.3711930032791639  0.7639215521543998  0.4291077180685816
  0.3932450810448819  0.8704183714825277  0.6284197211574273
  0.9722795690796356  0.6853223987079843  0.6216404555735461
  0.2219460273355532  0.9813018519577740  0.4549875963197185
  0.0130926961556720  0.9225595306249277  0.4195151962046016
  0.2632113050468822  0.7439767828830516  0.5861736093553583
  0.1211226789455525  0.9026806269675849  0.9291511603594038
  0.1434097202503384  0.7962588052790774  0.7950896765264516
  0.3712653998885975  0.7639886479455098  0.7624339502208883
  0.3933215823628590  0.8704729679688870  0.9618440394594074
  0.9721071046719457  0.6852988308470056  0.9549564482579924
  0.2218155316259396  0.9814236479655628  0.7883065023255443
  0.0129802703410483  0.9225184838939589  0.7528656172452183
  0.2632390848607760  0.7441658557278876  0.9194753048381288
  0.6212605708916937  0.2360152708607173  0.2624326100314630
  0.6432380353302873  0.1295798633799542  0.1284249471412403
  0.8710615899548723  0.0974234101494019  0.0958313746638886
  0.8934055566592709  0.2037407515720406  0.2950938864425136
  0.4718163140422826  0.0185754190561577  0.2883048803364860
  0.7222833277342879  0.3146747407883015  0.1216365649911243
  0.5132085105531702  0.2560221805526345  0.0861723436640155
  0.7629766887588393  0.0774804051743861  0.2528652531268561
  0.6212674586012382  0.2360547121762994  0.5958326859876509
  0.6433252351476373  0.1295310361485260  0.4618471030440813
  0.8711288473921452  0.0973171183336214  0.4291574400203002
  0.8934598752925933  0.2037699500394062  0.6283065522430400
  0.4718966106021169  0.0186281275681502  0.6216715215776986
  0.7221006586860671  0.3146995005821774  0.4549602321285798
  0.5132410559844933  0.2558334935114868  0.4194759674865091
  0.7630591160529462  0.0773868230545312  0.5862409252572338
  0.6211920092875366  0.2360710698529025  0.9291082470010871
  0.6431885510168170  0.1296103277687945  0.7951997708399714
  0.8710122914960817  0.0974640892269225  0.7624585760300033
  0.8933947260724739  0.2038370161759666  0.9617485894590295
  0.4719408687410054  0.0186972011591469  0.9549851154605434
  0.7220161348520564  0.3146870940127839  0.7882072746678984
  0.5130477046067262  0.2559929825816755  0.7528044418698200
  0.7630794731695729  0.0774440944734165  0.9195174122621796
  0.6212468986849033  0.5692661256561010  0.2623856441522330
  0.6434094247559488  0.4628130309102744  0.1283574623900216
  0.8712472784699272  0.4308010606692571  0.0957730294176568
  0.8933441510683328  0.5371546154676703  0.2950676855150112
  0.4719563043708467  0.3519855572418731  0.2883551662096150
  0.7219296189960567  0.6479858708417213  0.1215145774565293
  0.5130399776979885  0.5891511347703455  0.0861756528854878
  0.7631913261844401  0.4108518085298918  0.2528350249582993
  0.6212464965538935  0.5691987845126021  0.5957751920074181
  0.6432063522009730  0.4628159145371016  0.4617592532685262
  0.8711133585351393  0.4308332628877636  0.4291380396336287
  0.8934087642757191  0.5371875396552521  0.6283667244925734
  0.4719242781452165  0.3520125200342643  0.6215130398859177
  0.7219527810805032  0.6479603819731036  0.4549335614908927
  0.5131792461004407  0.5892278879659071  0.4194382646866785
  0.7630356528473465  0.4108510689273729  0.5861815879784281
  0.6211190346519271  0.5691698018025229  0.9291382210648859
  0.6433534348236125  0.4628464030283988  0.7950687758175575
  0.8712507938616426  0.4307302196827931  0.7623909759388199
  0.8932079675569891  0.5371808949661182  0.9617561537900650
  0.4719554389902104  0.3520431198227168  0.9549338411392921
  0.7219625759085339  0.6480164910750145  0.7883497391863664
  0.5131936999510005  0.5891492725649011  0.7528371162122628
  0.7631772766835968  0.4107676380116982  0.9194427770997039
  0.6210120931330148  0.9025367513517297  0.2624563084677221
  0.6434619159422751  0.7962300400744040  0.1283059843818451
  0.8712696063700452  0.7639451072229023  0.0958332966937439
  0.8931914954812111  0.8703902192887095  0.2952029841044881
  0.4720182781641957  0.6853136932549106  0.2882063762507174
  0.7218896401501361  0.9813711127350786  0.1216703818142092
  0.5130541743842812  0.9226126328223468  0.0862383926272969
  0.7630533562400480  0.7440082296204575  0.2528018473000962
  0.6210680961319841  0.9025779697505277  0.5958336339510836
  0.6433921182482431  0.7961637984560980  0.4617541167679199
  0.8711898585941242  0.7639250495746052  0.4291092394291406
  0.8932449927774824  0.8704178993179080  0.6284197522326698
  0.4722793619232724  0.6853239531903869  0.6216400876230239
  0.7219443930626673  0.9813024475631039  0.4549892514664860
  0.5130888399666566  0.9225599711559437  0.4195181062323320
  0.7632110579951153  0.7439775853791382  0.5861751353205161
  0.6211225776904211  0.9026811547883647  0.9291512725566674
  0.6434145806530106  0.7962590396558743  0.7950892710753963
  0.8712689701571691  0.7639907386937578  0.7624319848832385
  0.8933221549557446  0.8704717909515813  0.9618423141471258
  0.4721065602373568  0.6853002853812696  0.9549548489458020
  0.7218174530654261  0.9814237659907190  0.7883061298429916
  0.5129807274501854  0.9225175197638482  0.7528663169506724
  0.7632397638608348  0.7441645265188611  0.9194753905311327
  0.9982833712854600  0.2621394802168876  0.3192727885615503
  0.2481202050043888  0.0712048190102500  0.1526498391422527
  0.9982398782518374  0.2622103537389870  0.6525789500600059
  0.2482087882888309  0.0711275664127305  0.4860189677665717
  0.9982624818676022  0.2622350687220747  0.9859683248038202
  0.2481149907431125  0.0712369620685081  0.8193195567985616
  0.9983185166812998  0.5954902505492817  0.3192260871242839
  0.2483760101689888  0.4045368170485927  0.1526246399471649
  0.9983748770560227  0.5954640680487846  0.6526270043606347
  0.2482253239763242  0.4045498796997662  0.4859621233949957
  0.9982226452673669  0.5954496864031249  0.9859612493298542
  0.2483252483461498  0.4045081777451577  0.8192258934294137
  0.9981172605360564  0.9287622186743586  0.3193190589244658
  0.2482394094243931  0.7377896304858442  0.1525805825201018
  0.9981272773928214  0.9287952502762411  0.6526466239772420
  0.2482625912036839  0.7377671205007130  0.4859718136611397
  0.9982047172815535  0.9288738495507511  0.9860152819345883
  0.2482872810710856  0.7378611398627004  0.8192738924486120
  0.4982849676188701  0.2621410176229992  0.3192758110559948
  0.7481199511781426  0.0712039639762704  0.1526481153543972
  0.4982398161971050  0.2622095962464989  0.6525804914295034
  0.7482075377591213  0.0711271727614675  0.4860210268196509
  0.4982631255441923  0.2622357925364685  0.9859705520902068
  0.7481164674318375  0.0712386060541371  0.8193185993959534
  0.4983219207244582  0.5954928067426560  0.3192226146902850
  0.7483754543298156  0.4045353539721012  0.1526228525042823
  0.4983754510478587  0.5954640855015213  0.6526257796072066
  0.7482241227174353  0.4045483633330532  0.4859611651773481
  0.4982250953092352  0.5954505795731531  0.9859571444482846
  0.7483220754629918  0.4045071564196634  0.8192264442370808
  0.4981172252102277  0.9287609073878105  0.3193201438893933
  0.7482410572036138  0.7377896312677298  0.1525803661478116
  0.4981245237676294  0.9287943736130972  0.6526500008053749
  0.7482610913940623  0.7377670296068816  0.4859732046976483
  0.4982058898719784  0.9288729916766379  0.9860179100484816
  0.7482916847632948  0.7378605360246389  0.8192723639726731

  0.00000000E+00  0.00000000E+00  0.00000000E+00
  0.00000000E+00  0.00000000E+00  0.00000000E+00
  0.00000000E+00  0.00000000E+00  0.00000000E+00
  0.00000000E+00  0.00000000E+00  0.00000000E+00
  0.00000000E+00  0.00000000E+00  0.00000000E+00
  0.00000000E+00  0.00000000E+00  0.00000000E+00
  0.00000000E+00  0.00000000E+00  0.00000000E+00
  0.00000000E+00  0.00000000E+00  0.00000000E+00
  0.00000000E+00  0.00000000E+00  0.00000000E+00
  0.00000000E+00  0.00000000E+00  0.00000000E+00
  0.00000000E+00  0.00000000E+00  0.00000000E+00
  0.00000000E+00  0.00000000E+00  0.00000000E+00
  0.00000000E+00  0.00000000E+00  0.00000000E+00
  0.00000000E+00  0.00000000E+00  0.00000000E+00
  0.00000000E+00  0.00000000E+00  0.00000000E+00
  0.00000000E+00  0.00000000E+00  0.00000000E+00
  0.00000000E+00  0.00000000E+00  0.00000000E+00
  0.00000000E+00  0.00000000E+00  0.00000000E+00
  0.00000000E+00  0.00000000E+00  0.00000000E+00
  0.00000000E+00  0.00000000E+00  0.00000000E+00
  0.00000000E+00  0.00000000E+00  0.00000000E+00
  0.00000000E+00  0.00000000E+00  0.00000000E+00
  0.00000000E+00  0.00000000E+00  0.00000000E+00
  0.00000000E+00  0.00000000E+00  0.00000000E+00
  0.00000000E+00  0.00000000E+00  0.00000000E+00
  0.00000000E+00  0.00000000E+00  0.00000000E+00
  0.00000000E+00  0.00000000E+00  0.00000000E+00
  0.00000000E+00  0.00000000E+00  0.00000000E+00
  0.00000000E+00  0.00000000E+00  0.00000000E+00
  0.00000000E+00  0.00000000E+00  0.00000000E+00
  0.00000000E+00  0.00000000E+00  0.00000000E+00
  0.00000000E+00  0.00000000E+00  0.00000000E+00
  0.00000000E+00  0.00000000E+00  0.00000000E+00
  0.00000000E+00  0.00000000E+00  0.00000000E+00
  0.00000000E+00  0.00000000E+00  0.00000000E+00
  0.00000000E+00  0.00000000E+00  0.00000000E+00
  0.00000000E+00  0.00000000E+00  0.00000000E+00
  0.00000000E+00  0.00000000E+00  0.00000000E+00
  0.00000000E+00  0.00000000E+00  0.00000000E+00
  0.00000000E+00  0.00000000E+00  0.00000000E+00
  0.00000000E+00  0.00000000E+00  0.00000000E+00
  0.00000000E+00  0.00000000E+00  0.00000000E+00
  0.00000000E+00  0.00000000E+00  0.00000000E+00
  0.00000000E+00  0.00000000E+00  0.00000000E+00
  0.00000000E+00  0.00000000E+00  0.00000000E+00
  0.00000000E+00  0.00000000E+00  0.00000000E+00
  0.00000000E+00  0.00000000E+00  0.00000000E+00
  0.00000000E+00  0.00000000E+00  0.00000000E+00
  0.00000000E+00  0.00000000E+00  0.00000000E+00
  0.00000000E+00  0.00000000E+00  0.00000000E+00
  0.00000000E+00  0.00000000E+00  0.00000000E+00
  0.00000000E+00  0.00000000E+00  0.00000000E+00
  0.00000000E+00  0.00000000E+00  0.00000000E+00
  0.00000000E+00  0.00000000E+00  0.00000000E+00
  0.00000000E+00  0.00000000E+00  0.00000000E+00
  0.00000000E+00  0.00000000E+00  0.00000000E+00
  0.00000000E+00  0.00000000E+00  0.00000000E+00
  0.00000000E+00  0.00000000E+00  0.00000000E+00
  0.00000000E+00  0.00000000E+00  0.00000000E+00
  0.00000000E+00  0.00000000E+00  0.00000000E+00
  0.00000000E+00  0.00000000E+00  0.00000000E+00
  0.00000000E+00  0.00000000E+00  0.00000000E+00
  0.00000000E+00  0.00000000E+00  0.00000000E+00
  0.00000000E+00  0.00000000E+00  0.00000000E+00
  0.00000000E+00  0.00000000E+00  0.00000000E+00
  0.00000000E+00  0.00000000E+00  0.00000000E+00
  0.00000000E+00  0.00000000E+00  0.00000000E+00
  0.00000000E+00  0.00000000E+00  0.00000000E+00
  0.00000000E+00  0.00000000E+00  0.00000000E+00
  0.00000000E+00  0.00000000E+00  0.00000000E+00
  0.00000000E+00  0.00000000E+00  0.00000000E+00
  0.00000000E+00  0.00000000E+00  0.00000000E+00
  0.00000000E+00  0.00000000E+00  0.00000000E+00
  0.00000000E+00  0.00000000E+00  0.00000000E+00
  0.00000000E+00  0.00000000E+00  0.00000000E+00
  0.00000000E+00  0.00000000E+00  0.00000000E+00
  0.00000000E+00  0.00000000E+00  0.00000000E+00
  0.00000000E+00  0.00000000E+00  0.00000000E+00
  0.00000000E+00  0.00000000E+00  0.00000000E+00
  0.00000000E+00  0.00000000E+00  0.00000000E+00
  0.00000000E+00  0.00000000E+00  0.00000000E+00
  0.00000000E+00  0.00000000E+00  0.00000000E+00
  0.00000000E+00  0.00000000E+00  0.00000000E+00
  0.00000000E+00  0.00000000E+00  0.00000000E+00
  0.00000000E+00  0.00000000E+00  0.00000000E+00
  0.00000000E+00  0.00000000E+00  0.00000000E+00
  0.00000000E+00  0.00000000E+00  0.00000000E+00
  0.00000000E+00  0.00000000E+00  0.00000000E+00
  0.00000000E+00  0.00000000E+00  0.00000000E+00
  0.00000000E+00  0.00000000E+00  0.00000000E+00
  0.00000000E+00  0.00000000E+00  0.00000000E+00
  0.00000000E+00  0.00000000E+00  0.00000000E+00
  0.00000000E+00  0.00000000E+00  0.00000000E+00
  0.00000000E+00  0.00000000E+00  0.00000000E+00
  0.00000000E+00  0.00000000E+00  0.00000000E+00
  0.00000000E+00  0.00000000E+00  0.00000000E+00
  0.00000000E+00  0.00000000E+00  0.00000000E+00
  0.00000000E+00  0.00000000E+00  0.00000000E+00
  0.00000000E+00  0.00000000E+00  0.00000000E+00
  0.00000000E+00  0.00000000E+00  0.00000000E+00
  0.00000000E+00  0.00000000E+00  0.00000000E+00
  0.00000000E+00  0.00000000E+00  0.00000000E+00
  0.00000000E+00  0.00000000E+00  0.00000000E+00
  0.00000000E+00  0.00000000E+00  0.00000000E+00
  0.00000000E+00  0.00000000E+00  0.00000000E+00
  0.00000000E+00  0.00000000E+00  0.00000000E+00
  0.00000000E+00  0.00000000E+00  0.00000000E+00
  0.00000000E+00  0.00000000E+00  0.00000000E+00
  0.00000000E+00  0.00000000E+00  0.00000000E+00
  0.00000000E+00  0.00000000E+00  0.00000000E+00
  0.00000000E+00  0.00000000E+00  0.00000000E+00
  0.00000000E+00  0.00000000E+00  0.00000000E+00
  0.00000000E+00  0.00000000E+00  0.00000000E+00
  0.00000000E+00  0.00000000E+00  0.00000000E+00
  0.00000000E+00  0.00000000E+00  0.00000000E+00
  0.00000000E+00  0.00000000E+00  0.00000000E+00
  0.00000000E+00  0.00000000E+00  0.00000000E+00
  0.00000000E+00  0.00000000E+00  0.00000000E+00
  0.00000000E+00  0.00000000E+00  0.00000000E+00
  0.00000000E+00  0.00000000E+00  0.00000000E+00
  0.00000000E+00  0.00000000E+00  0.00000000E+00
  0.00000000E+00  0.00000000E+00  0.00000000E+00
  0.00000000E+00  0.00000000E+00  0.00000000E+00
  0.00000000E+00  0.00000000E+00  0.00000000E+00
  0.00000000E+00  0.00000000E+00  0.00000000E+00
  0.00000000E+00  0.00000000E+00  0.00000000E+00
  0.00000000E+00  0.00000000E+00  0.00000000E+00
  0.00000000E+00  0.00000000E+00  0.00000000E+00
  0.00000000E+00  0.00000000E+00  0.00000000E+00
  0.00000000E+00  0.00000000E+00  0.00000000E+00
  0.00000000E+00  0.00000000E+00  0.00000000E+00
  0.00000000E+00  0.00000000E+00  0.00000000E+00
  0.00000000E+00  0.00000000E+00  0.00000000E+00
  0.00000000E+00  0.00000000E+00  0.00000000E+00
  0.00000000E+00  0.00000000E+00  0.00000000E+00
  0.00000000E+00  0.00000000E+00  0.00000000E+00
  0.00000000E+00  0.00000000E+00  0.00000000E+00
  0.00000000E+00  0.00000000E+00  0.00000000E+00
  0.00000000E+00  0.00000000E+00  0.00000000E+00
  0.00000000E+00  0.00000000E+00  0.00000000E+00
  0.00000000E+00  0.00000000E+00  0.00000000E+00
  0.00000000E+00  0.00000000E+00  0.00000000E+00
  0.00000000E+00  0.00000000E+00  0.00000000E+00
  0.00000000E+00  0.00000000E+00  0.00000000E+00
  0.00000000E+00  0.00000000E+00  0.00000000E+00
  0.00000000E+00  0.00000000E+00  0.00000000E+00
  0.00000000E+00  0.00000000E+00  0.00000000E+00
  0.00000000E+00  0.00000000E+00  0.00000000E+00
  0.00000000E+00  0.00000000E+00  0.00000000E+00
  0.00000000E+00  0.00000000E+00  0.00000000E+00
  0.00000000E+00  0.00000000E+00  0.00000000E+00
  0.00000000E+00  0.00000000E+00  0.00000000E+00
  0.00000000E+00  0.00000000E+00  0.00000000E+00
  0.00000000E+00  0.00000000E+00  0.00000000E+00
  0.00000000E+00  0.00000000E+00  0.00000000E+00
  0.00000000E+00  0.00000000E+00  0.00000000E+00
  0.00000000E+00  0.00000000E+00  0.00000000E+00
  0.00000000E+00  0.00000000E+00  0.00000000E+00
  0.00000000E+00  0.00000000E+00  0.00000000E+00
  0.00000000E+00  0.00000000E+00  0.00000000E+00
  0.00000000E+00  0.00000000E+00  0.00000000E+00
  0.00000000E+00  0.00000000E+00  0.00000000E+00
  0.00000000E+00  0.00000000E+00  0.00000000E+00
  0.00000000E+00  0.00000000E+00  0.00000000E+00
  0.00000000E+00  0.00000000E+00  0.00000000E+00
  0.00000000E+00  0.00000000E+00  0.00000000E+00
  0.00000000E+00  0.00000000E+00  0.00000000E+00
  0.00000000E+00  0.00000000E+00  0.00000000E+00
  0.00000000E+00  0.00000000E+00  0.00000000E+00
  0.00000000E+00  0.00000000E+00  0.00000000E+00
  0.00000000E+00  0.00000000E+00  0.00000000E+00
  0.00000000E+00  0.00000000E+00  0.00000000E+00
  0.00000000E+00  0.00000000E+00  0.00000000E+00
  0.00000000E+00  0.00000000E+00  0.00000000E+00
  0.00000000E+00  0.00000000E+00  0.00000000E+00
  0.00000000E+00  0.00000000E+00  0.00000000E+00
  0.00000000E+00  0.00000000E+00  0.00000000E+00
  0.00000000E+00  0.00000000E+00  0.00000000E+00
  0.00000000E+00  0.00000000E+00  0.00000000E+00
  0.00000000E+00  0.00000000E+00  0.00000000E+00
  0.00000000E+00  0.00000000E+00  0.00000000E+00
  0.00000000E+00  0.00000000E+00  0.00000000E+00
  0.00000000E+00  0.00000000E+00  0.00000000E+00
  0.00000000E+00  0.00000000E+00  0.00000000E+00
  0.00000000E+00  0.00000000E+00  0.00000000E+00
  0.00000000E+00  0.00000000E+00  0.00000000E+00
  0.00000000E+00  0.00000000E+00  0.00000000E+00
  0.00000000E+00  0.00000000E+00  0.00000000E+00
  0.00000000E+00  0.00000000E+00  0.00000000E+00
  0.00000000E+00  0.00000000E+00  0.00000000E+00
  0.00000000E+00  0.00000000E+00  0.00000000E+00
  0.00000000E+00  0.00000000E+00  0.00000000E+00
  0.00000000E+00  0.00000000E+00  0.00000000E+00
  0.00000000E+00  0.00000000E+00  0.00000000E+00
  0.00000000E+00  0.00000000E+00  0.00000000E+00
  0.00000000E+00  0.00000000E+00  0.00000000E+00
  0.00000000E+00  0.00000000E+00  0.00000000E+00
  0.00000000E+00  0.00000000E+00  0.00000000E+00
  0.00000000E+00  0.00000000E+00  0.00000000E+00
  0.00000000E+00  0.00000000E+00  0.00000000E+00
  0.00000000E+00  0.00000000E+00  0.00000000E+00
  0.00000000E+00  0.00000000E+00  0.00000000E+00
  0.00000000E+00  0.00000000E+00  0.00000000E+00
  0.00000000E+00  0.00000000E+00  0.00000000E+00
  0.00000000E+00  0.00000000E+00  0.00000000E+00
  0.00000000E+00  0.00000000E+00  0.00000000E+00
  0.00000000E+00  0.00000000E+00  0.00000000E+00
  0.00000000E+00  0.00000000E+00  0.00000000E+00
  0.00000000E+00  0.00000000E+00  0.00000000E+00
  0.00000000E+00  0.00000000E+00  0.00000000E+00
  0.00000000E+00  0.00000000E+00  0.00000000E+00
  0.00000000E+00  0.00000000E+00  0.00000000E+00
  0.00000000E+00  0.00000000E+00  0.00000000E+00
  0.00000000E+00  0.00000000E+00  0.00000000E+00
  0.00000000E+00  0.00000000E+00  0.00000000E+00
  0.00000000E+00  0.00000000E+00  0.00000000E+00
