   936
 Wannier centres, written by Wannier90 on15Jan2025 at 13:20:55 
X          7.26625619       7.63931974       2.38946630
X          4.83980509       9.16848604      10.07449104
X          1.54248983       7.63931966       2.01617218
X         10.56356397       9.16850895      10.44784015
X          1.83159636       2.03789606       7.26632233
X          7.55541685       2.03793670       7.63965188
X         10.85265176      14.76992037      15.69783146
X          5.12886589      14.76994058      15.32456150
X          1.54020178       2.03878201       2.01719050
X          7.26401238       2.03886342       2.39048367
X          7.55406442       7.63982309       7.63799041
X          4.83759922      14.76895246      10.07536772
X          5.12766534       9.16790497      15.32279059
X          1.83030271       7.63978977       7.26468944
X         10.56136817      14.76897208      10.44872051
X         10.85138488       9.16795980      15.69619735
X         10.56427702       3.56404207      10.44583757
X          1.54329345      13.24378735       2.01422507
X          4.84048215       3.56403179      10.07253597
X          7.26706901      13.24379734       2.38753730
X          2.12216298       7.64023141      12.51219960
X          4.54862196       9.16756413       4.82720139
X         10.27237028       9.16756385       5.20058379
X          7.84593837       7.64028839      12.88553577
X          4.54974019       3.56369656       4.82688527
X          2.12327512      13.24412475      12.51173953
X         10.27349760       3.56368083       5.20017483
X          7.84711943      13.24414557      12.88503767
X         10.27090782      14.76856492       5.20224059
X          4.54709547      14.76852359       4.82896636
X          2.12060140       2.03930388      12.51376186
X          7.84434080       2.03930213      12.88709766
X          7.55642111      13.24190199       7.63848635
X         10.85370680       3.56593344      15.69660623
X          1.83269514      13.24190262       7.26509592
X          5.12988547       3.56597389      15.32335761
X          2.13410796       3.98796401       9.61846134
X          7.85788165       3.98800668       9.99178545
X         10.57395660      12.81968824       7.55339880
X          4.85020956      12.81960118       7.18005394
X          7.85776982       9.58666821       9.99086536
X          7.56742021       9.58850107       4.74224513
X          1.84362599       9.58849303       4.36895366
X          2.13396558       9.58662267       9.61757099
X          1.84373599       3.98707753       4.36964353
X          7.56753676       3.98713313       4.74300526
X          4.56065469      12.81975494       1.93351711
X         10.28444128      12.81983555       2.30686203
X          4.84941242       1.61539687       7.18100411
X         10.57316488       1.61539050       7.55436078
X          4.56046777       7.22116301       1.93258914
X          5.14096525       7.21926949      12.42719828
X         10.28424926       7.22117261       2.30590275
X         10.86471907       7.21925464      12.80056453
X          5.14110739      12.82075663      12.42796610
X         10.86492569      12.82081118      12.80126096
X          1.84073389      15.18993939       4.37039454
X          7.56453258      15.18996772       4.74373940
X          8.14744603       3.98806160      15.23831325
X          2.42369025       3.98805313      14.86498830
X          4.84905518       7.22127723       7.18108003
X         10.57283775       7.22128318       7.55439487
X          7.85567060      15.19069791       9.99180694
X          2.13194342      15.19065602       9.61842139
X         10.86178546       1.61787751      12.80203711
X          5.13798324       1.61783057      12.42872944
X          8.14658268      15.19241208      15.23923365
X          2.42279996      15.19239853      14.86591178
X          4.55828891       1.61719598       1.93353692
X         10.28208286       1.61715587       2.30683646
X          2.42258416       9.58654483      14.86605550
X          8.14641757       9.58660551      15.23934300
X          0.19138444       4.57726707       1.44073697
X          3.48871460      12.23051404       9.49900554
X          5.91516505       4.57727386       1.81408019
X          9.21249284      12.23053797       9.87233296
X          6.49514683      10.17660825      12.30911237
X          8.79438478       1.53889482       4.61731648
X          0.77136496      10.17658092      11.93576984
X          3.07062904       1.53890948       4.24401721
X          6.36794444      15.26891297      12.30228430
X          3.19783565       6.63123753       4.25084975
X          8.92158792       6.63125127       4.62414418
X         12.09171984      15.26892379      12.67558875
X         11.51172294       9.66590180       2.18001287
X          5.78799881       9.66591809       1.80661768
X          9.50202972       6.63008151      15.11913429
X          9.08520542       7.14197955       9.86492103
X          3.77826809       6.63009045      14.74580020
X          3.36144492       7.14191234       9.49161077
X          9.50136817       1.02713815      15.11925359
X          3.77760895       1.02711580      14.74594794
X          6.20479179      10.17770577       7.06077284
X          0.48096320      10.17768108       6.68750170
X          6.20423432      15.78077324       7.06100044
X          0.48049148      15.78074606       6.68764020
X          3.07097504      12.74224542       4.24138435
X          8.79476956      12.74225248       4.61471164
X          6.36818037       4.06559283      12.29965331
X         12.09198183       4.06562704      12.67295919
X          9.21071868       1.02658217       9.87315783
X          5.78808577      15.27037840       1.80688990
X          3.77870320      12.23371099      14.74635363
X          9.50249242      12.23371046      15.11968959
X         11.51186132      15.27042739       2.18016265
X          3.48688510       1.02656951       9.49979485
X          6.20519152       4.57408590       7.06145253
X          0.48141502       4.57403881       6.68806271
X          5.76360012       0.52303749       4.72187774
X         11.48737745       0.52307637       5.09521934
X          8.77192259      16.28262314       7.53281514
X         12.06907036       0.52518648      15.59091264
X          2.75826602      10.67987123       1.91055302
X          6.34533364       0.52519381      15.21766980
X          8.48214097      10.67987479       2.28388098
X          9.06317819      10.68056741      12.78178202
X          3.33939264      10.68055034      12.40849728
X          5.76580388       6.12726118       4.72357577
X         11.48957595       6.12723778       5.09689128
X          3.04814718      16.28261332       7.15943926
X          6.05552259       6.12790314       9.96875787
X         11.77930372       6.12793959      10.34208207
X          2.76192245       5.07771823       1.91228994
X          8.48570763       5.07772393       2.28559689
X          6.05919791      11.73006519       9.97059127
X         11.78297695      11.73003545      10.34389647
X          9.06089309      16.28476777      12.78014640
X          3.33711849      16.28474828      12.40684445
X          3.05014858       5.07856744       7.15928231
X          8.77392658       5.07854583       7.53259491
X         12.07126768      11.72926414      15.59079333
X          6.34748637      11.72928479      15.21746498
X         11.48936666      11.72963857       5.09413103
X          5.76559701      11.72966530       4.72077233
X          2.75749487      16.28386475       1.91187452
X          8.48123060      16.28385087       2.28517159
X         11.77857885       0.52401319      10.34343046
X         12.06997781       6.12819973      15.59099842
X          6.34618780       6.12817477      15.21768965
X          3.04888450      10.67966266       7.15946712
X          8.77269028      10.67969905       7.53277162
X          6.05478338       0.52397398       9.97014985
X          9.06281097       5.07817424      12.77901278
X          3.33906955       5.07814699      12.40572176
X          5.83442029      11.36722053       5.18324414
X         11.55818880      11.36721580       5.55662076
X          9.13165106       5.44058184      13.24150871
X          3.40790202       5.44056546      12.86821519
X          8.79651511       7.14211790       4.61649927
X          3.07275231       7.14210096       4.24320393
X          5.83212656       0.16107019       5.18463548
X         11.55589130       0.16108169       5.55796247
X         12.09385811       9.66572543      12.67481732
X          6.37006537       9.66574340      12.30148513
X          9.12942957      16.64672257      13.24290852
X          3.40561712      16.64672276      12.86959584
X          2.82593903      16.64584588       2.37466710
X          8.54967977      16.64583903       2.74795696
X          0.18959486      15.78128329       1.44145710
X          5.91338419      15.78124708       1.81484956
X         10.74371561      14.54243688       5.13210419
X          5.01989753      14.54239120       4.75879756
X          8.54966621      11.04362438       2.74577814
X          2.82580903      11.04364825       2.37243553
X          8.31717540       2.26540901      12.81700301
X          2.59345529       2.26538539      12.44373933
X         11.84688021       5.76420935      10.80398488
X          6.12310065       5.76417942      10.43066840
X          0.76896455      15.77996804      11.93566234
X          6.49274336      15.77996835      12.30899704
X          2.82980434       5.44077061       2.37458350
X          8.02811715       2.26418301       7.56873526
X          2.30430157       2.26412934       7.19535968
X         11.32537439      14.54369070      15.62692730
X          5.60157277      14.54369531      15.25361094
X          8.91919606       1.02783501       4.62403774
X          3.19543454       1.02785044       4.25069120
X          4.97066585      14.15631530      10.37498653
X          1.63565768       9.35648792       9.57496752
X          7.35945299       9.35653848       9.94827610
X          9.78592095       7.45128448       2.26330663
X          4.06213888       7.45127056       1.88998590
X          7.73685989       2.26508054       2.31964081
X         10.69446155      14.15632065      10.74830405
X         11.51333267       4.06656348       2.17913194
X          7.06975659       9.35717760       4.69977950
X          1.34595146       9.35716769       4.32650664
X         10.36705632       7.45060535      12.75814169
X          4.64329866       7.45060843      12.38476660
X          7.68668391       8.25240812       7.93759383
X          1.96291613       8.25239636       7.56427591
X          5.78956704       4.06655493       1.80584027
X          3.36310739      12.74123045       9.49083757
X          9.08689433      12.74125766       9.86420275
X          2.01303313       2.26501239       1.94626328
X          7.36007024       3.75670745       9.94941158
X          1.63629180       3.75667191       9.57607745
X         10.98400934       8.55537220      15.99581208
X          5.26026276       8.55536015      15.62247124
X          9.78661180      13.05111987       2.26448761
X          4.06283310      13.05105772       1.89116357
X          6.07852540      15.27000207       7.05474536
X         11.80234089      15.26999044       7.42801288
X          9.37570272       1.53792636      15.11297465
X          3.65193377       1.53789916      14.73962044
X          7.06978375       3.75589105       4.70041477
X          4.64333807      13.05198914      12.38536705
X         10.36717380      13.05204794      12.75864270
X          1.34598088       3.75583888       4.32705115
X          0.76985048       4.57640045      11.93637875
X          6.49359388       4.57638315      12.30975705
X          8.92018510      12.23146281       4.62476831
X          3.19638681      12.23145562       4.25150096
X          3.36158044       1.53743883       9.49186709
X          9.08539038       1.53744418       9.86519022
X          2.30449825      13.46960579       7.19390000
X          8.02820222      13.46963259       7.56722264
X          5.91323772      10.17680805       1.81323803
X          0.18940010      10.17677838       1.43995285
X          3.48668344       6.63102473       9.49826950
X          9.21043372       6.63108507       9.87162386
X         11.32549737       3.33818417      15.62542594
X          5.60167011       3.33822311      15.25211869
X          4.36488502       1.30873990       7.10922969
X         10.08864986       1.30871758       7.48257654
X         10.74513225       8.94120917       5.12991715
X          5.02140639       8.94122284       4.75661287
X          7.39798344       8.25211322       2.68916772
X          7.66208339      15.49909048      15.16741753
X          1.93829382      15.49906233      14.79408415
X          7.37120036      15.49734450       9.91971106
X          4.97150986       8.55571826      10.37420018
X         10.69528445       8.55573486      10.74755442
X          1.67418183       8.25210952       2.31588721
X          8.31868800       7.86665184      12.81486018
X          2.59489903       7.86662017      12.44150807
X          8.55360636       5.44074646       2.74789791
X          9.37654692       7.14085404      15.11039279
X          3.65279468       7.14086526      14.73708403
X          6.07933449       9.66692731       7.05213289
X         11.80306557       9.66691382       7.42554176
X          1.67440696      13.85577128       2.31565023
X          7.39818260      13.85574283       2.68900868
X          5.02237582       3.33686074       4.75771755
X          3.11652170      11.04298108       7.62150501
X          8.84031904      11.04299579       7.99482299
X         10.74615462       3.33686550       5.13105471
X          6.41382016       5.76489409      15.67975093
X         10.69543950       2.95207282      10.74727837
X          4.97164360       2.95205629      10.37396922
X          6.12708350      11.36704180      10.43288699
X         11.85087581      11.36705362      10.80621379
X          2.59592259      13.47095413      12.44260831
X          8.31976181      13.47099112      12.81594560
X          1.91553274      15.15546948       8.95643519
X         12.13759250       5.76488528      16.05304026
X          4.34189909       1.65234706       1.27153534
X         10.06570430       1.65232665       1.64484454
X          3.11683729      16.64463580       7.62226522
X          8.84058990      16.64469350       7.99561666
X         11.84704916       0.16201260      10.80620652
X          5.83334966       5.76394324       5.18553844
X         11.55711285       5.76392225       5.55884898
X          6.12322762       0.16194290      10.43291537
X          3.40693292      11.04388794      12.87044894
X          9.13071058      11.04392937      13.24372164
X          3.65384241      12.74471215      14.73775871
X          6.08035037       4.06308632       7.05279287
X          9.37763255      12.74471338      15.11107047
X         11.80415343       4.06304465       7.42607500
X          1.62510338      15.15519422       3.70838119
X          7.34890740      15.15518791       4.08174149
X         10.64618183       1.65266632      12.14003781
X          4.92237638       1.65261041      11.76672266
X          4.63295097      12.85504695       6.51819353
X         10.35670381      12.85510138       6.89152993
X          3.11830036       5.44083462       7.62192115
X          8.84208705       5.44081068       7.99523253
X         12.13944821      11.36701095      16.05344362
X          6.41565462      11.36700194      15.68009462
X         12.13779339       0.16313944      16.05373056
X          6.41403976       0.16311866      15.68047866
X          7.93019511       3.95269658      14.57644500
X          2.20642570       3.95268587      14.20311176
X          4.36492403       6.91434581       7.10900413
X         10.08870170       6.91435030       7.48233286
X          7.66227959       9.89354494      15.16725079
X          1.93845138       9.89349082      14.79396866
X         11.56573366      16.76847426      10.39467139
X         11.27625188       5.56427138       5.14620832
X          5.55247806       5.56429468       4.77290382
X          6.23100918       4.31273124       6.55297475
X          0.50724474       4.31266286       6.17960013
X          5.84191785      16.76844740      10.02135611
X          9.52829001      12.49509883      14.61122046
X          3.80448732      12.49511797      14.23790113
X          8.84984902      11.24353791      12.83106021
X          3.12607792      11.24353413      12.45779987
X         10.07530534       1.84653977       7.51182302
X          4.35156393       1.84656302       7.13846150
X          6.22874870      15.51752867       6.55353424
X          9.52590426       1.29035008      14.61177228
X          0.50500768      15.51751622       6.18017557
X          3.80214628       1.29029013      14.23844743
X          1.92496797      14.96124099      14.82331801
X          7.64873984      14.96126890      15.19664372
X          4.35127491       7.45213910       7.13774356
X         10.07505649       7.45214465       7.51105682
X          7.69821620       1.93664022       2.76825316
X          1.97445353       1.93660529       2.39491479
X          9.79760724       1.31052254       2.23474888
X          1.92478387       9.35569747      14.82271075
X          7.64861637       9.35575260      15.19601771
X          4.07382301       1.31053549       1.86145853
X          1.64745768      15.49729087       9.54634406
X          7.35788873      14.95952761       9.94894086
X          0.21616131       4.31554975       0.93235753
X          1.97636653      13.14105622       2.39312693
X          7.70007623      13.14101556       2.76650426
X         10.99733375       3.66681001      10.82474788
X          5.27355905       3.66678868      10.45143001
X          4.98273599       9.26959747       5.20510400
X         10.70652258       9.26955002       5.57844513
X          0.21462836      15.51948904       0.93323227
X          5.93842351      15.51946941       1.30661005
X          2.55633048       7.53825621      12.89003526
X          8.28008677       7.53829610      13.26338712
X          7.64136064       3.95208159       9.32984601
X          1.91758465       3.95205649       8.95651298
X         10.99564596      14.87114391      10.82642239
X          5.27183288      14.87114237      10.45311410
X          7.08025699      15.49660747       4.67144878
X          1.35646029      15.49659650       4.29812278
X          7.35099862       3.95195120       4.08091698
X          4.65371350       1.31119256      12.35642280
X         10.37751574       1.31124163      12.72972318
X          1.62720145       3.95190041       3.70755056
X          4.92455558      12.85591350      11.76588037
X          5.93810173       9.91408490       1.30563403
X          3.51156202       6.89371971       8.99064353
X          9.23532045       6.89373759       9.36396727
X          0.21426765       9.91402804       0.93237030
X         10.64837207      12.85593757      12.13917373
X          9.79994502      12.51334272       2.23447338
X          4.07614926      12.51328057       1.86112385
X          6.23055780       9.91621561       6.55233977
X          0.50671039       9.91616009       6.17908158
X          9.52778581       6.89150260      14.61065924
X          3.80403395       6.89153048      14.23733608
X         10.70672283       3.66599466       5.57893546
X          1.97667689       7.53792049       2.39411285
X          8.55927750       0.03818187       7.58399179
X          4.98299689       3.66598141       5.20561865
X          8.27294055       5.64109103       2.33540801
X          2.83551987       0.03818237       7.21067285
X         11.57019617      11.16669215      10.39374436
X          5.84641669      11.16671838      10.02039114
X          2.83547243      11.24242090       7.20888212
X          8.55927313      11.24245010       7.58220414
X          2.55651080      13.14181845      12.89049517
X          8.28033969      13.14182886      13.26381007
X         11.85647505      16.76961917      15.64215051
X          6.13273692      16.76962177      15.26887433
X         11.85656184       5.56543834      15.64040873
X          6.13277737       5.56541280      15.26714508
X          1.35914141       9.89492079       4.29710161
X          7.08294410       9.89493086       4.67039112
X         10.38022362       6.91285375      12.72870819
X          4.65647457       6.91285533      12.35535595
X          7.70043960       7.53791168       2.76741077
X          5.27395181       9.26989529      10.45245955
X         10.99769717       9.26993497      10.82582468
X          7.98800418       7.53792354       8.01613636
X          2.26427603       7.53792196       7.64279787
X          4.07662652       6.91351913       1.86096033
X         11.28531268       9.26986144      16.07435412
X          5.56154431       9.26985198      15.70099360
X          0.79540394       4.31599965      11.42717351
X          6.51916341       4.31601563      11.80052909
X          1.65010341       9.89424050       9.54596967
X          7.37390633       9.89429143       9.91926501
X          4.98068457      14.87051620       5.20726003
X         10.70447168      14.87057093       5.58055506
X          9.80040240       6.91353345       2.23428130
X          9.23572275       1.28835620       9.36490706
X          3.51190912       1.28837045       8.99156359
X          8.27789491       1.93725953      13.26543816
X          8.94574999      12.49186450       4.11556986
X          2.55409789       1.93723147      12.89215333
X          3.22195783      12.49181271       3.74226664
X          5.84200274       5.56504411      10.01790266
X         11.56578784       5.56507512      10.39121503
X          0.79427217      15.51721705      11.42806051
X          2.54473135      11.24272488       1.95962757
X          3.22074883       1.29063189       3.74312857
X          8.94451289       1.29058358       4.11644292
X          8.26860760      11.24273362       2.33297256
X          6.51804679      15.51721651      11.80140399
X          2.26577069       1.93583773       7.64402674
X          7.98955811       1.93586861       8.01738375
X         11.28679658      14.87202185      16.07555806
X          5.56303544      14.87200636      15.70226380
X         10.07607955      13.05085820       7.51141978
X          4.35233363      13.05078422       7.13809483
X          2.54914049       5.64108123       1.96207472
X          7.64957032       3.75692460      15.19631041
X          1.92580217       3.75692091      14.82299922
X          2.83709793       5.64170974       7.21007817
X          8.56088175       5.64169054       7.58339258
X         11.85823567      11.16610529      15.64162079
X          6.13445373      11.16612571      15.26825009
X          5.93995669       4.31555366       1.30570697
X          7.99095890      13.14072779       8.01584301
X          2.26717943      13.14070707       7.64250316
X          9.23726070      12.49234742       9.36400999
X          3.51349433      12.49230438       8.99066680
X          5.56442703       3.66716417      15.70071880
X         11.28820966       3.66714966      16.07400154
X          0.79697094       9.91446500      11.42783359
X          6.52074525       9.91451225      11.80115535
X          5.55072614      16.76765873       4.77311044
X         11.27449543      16.76770169       5.14641899
X          3.12419211       0.04011456      12.45805386
X          8.84800053       0.04015710      12.83138921
X          8.94720931       6.89333527       4.11617640
X          3.22344891       6.89332365       3.74288076
X          3.12673157       5.64158459      12.45640270
X         11.27701413      11.16621556       5.14480300
X          8.85046718       5.64160350      12.82970709
X          5.55324368      11.16625132       4.77141511
X          2.54460850       0.03939387       1.96312047
X          8.26833329       0.03937341       2.33641584
X          6.69122077       9.78923878       7.13787987
X          0.96738845       9.78921066       6.76460302
X          3.97322023       7.01932475       9.57527932
X          9.69698821       7.01937271       9.94860942
X          6.39976911       9.78850188       1.89025329
X          0.67592924       9.78847161       1.51699743
X          9.98843603       7.01855539      15.19613528
X          4.26468114       7.01855809      14.82282634
X          3.68225809       1.41577313       4.32805438
X          9.40602442       1.41576283       4.70137962
X          6.97956083      15.39205236      12.38631029
X          1.25578433      15.39204214      12.01297476
X          1.63417069      14.95947260       9.57555817
X          6.69027200      15.39194484       7.13847029
X          4.06050299       1.84835647       1.89063987
X          9.78431909       1.84834265       2.26393508
X          1.64960335       4.29445146       9.54607738
X          7.37338008       4.29448481       9.91939321
X          4.34412171      12.85570102       1.27157636
X         10.06791383      12.85574877       1.64491755
X          0.67591396      15.39293193       1.51764253
X          9.69701877       1.41495320       9.94931530
X          6.39970700      15.39289395       1.89102587
X          3.97320344       1.41492452       9.57598704
X          7.08315025       4.29368511       4.67101055
X          4.65671852      12.51419434      12.35598244
X         10.38053739      12.51425108      12.72929466
X          1.35935161       4.29363272       4.29764921
X          2.80530338       4.96190035      12.75783164
X         10.95559521      11.84590131       5.44624139
X          5.23183209      11.84588903       5.07288298
X          0.96652148      15.39191936       6.76509997
X          8.52905819       4.96191985      13.13113709
X          4.26367409       1.41590792      14.82337482
X          9.98744683       1.41592664      15.19670394
X          8.52726949      16.16718350      13.13222962
X          2.80348961      16.16715073      12.75889946
X          5.22996809       0.64063187       5.07395519
X         10.95374014       0.64066039       5.44728346
X          5.31041144      14.54267688      10.00449699
X         11.03416791      14.54269208      10.37778606
X          0.96823086       4.18630527       6.76482513
X          6.69198948       4.18633981       7.13818067
X          7.92985194      15.15717618      14.57742130
X          2.20608624      15.15714488      14.20410070
X          9.98928683      12.62147471      15.19643449
X          4.26549032      12.62147418      14.82309915
X          2.51466032      10.56282290       7.51065491
X          8.23846069      10.56284874       7.88395679
X          5.81197876       6.24502368      15.56887217
X         11.53575337       6.24503681      15.94216370
X          1.67332246       2.65145082       2.31674478
X         10.40481678       8.55481666       5.50041786
X          4.68105799       8.55485182       5.12709477
X          7.97837865       8.25303968      13.18536486
X          2.25458992       8.25298632      12.81203108
X         10.06727337       7.25552283       1.64420517
X          8.23807346      16.16520587       7.88488092
X         10.08954871      12.51308852       7.48167169
X          4.36579579      12.51301648       7.10831536
X          4.34350158       7.25551346       1.27089046
X          7.66304827       4.29469744      15.16660491
X          1.93928828       4.29469460      14.79328432
X          6.40114989       4.18882673       1.89009945
X          3.97468980      12.61897898       9.57507125
X          9.69847306      12.61899567       9.94840211
X          5.81357672      11.84656565      15.56932438
X         11.53736959      11.84656416      15.94266987
X          8.24003579       4.96127792       7.88444511
X          2.51625134       4.96128948       7.51112330
X          7.39710907       2.65149133       2.69009578
X          2.51431475      16.16518731       7.51152481
X         11.53525371       0.64261216      15.94303621
X          5.81149472       0.64261053      15.56976851
X          0.67735263       4.18880854       1.51673567
X          3.68266429      12.61954057       4.32713587
X          9.40646130      12.61956020       4.70044488
X         10.36423809       1.84907168      12.75845217
X          4.64043746       1.84902358      12.38513905
X          7.94760688      16.16622114       2.63709226
X          2.22385716      16.16624495       2.26377959
X          6.97987794       4.18828531      12.38539357
X          1.25611758       4.18828670      12.01203851
X          5.23169387       6.24396123       5.07449785
X         10.95546653       6.24392185       5.44780100
X          2.80527265      10.56387341      12.75941259
X          8.52906938      10.56390506      13.13269145
X          7.06698239      14.95877566       4.70016834
X          1.34317809      14.95876086       4.32681196
X         11.03687467       3.33689567      10.37719222
X          5.31307007       3.33686809      10.00387032
X          5.31214718       8.94129167      10.00390276
X         11.03592792       8.94133682      10.37727166
X          7.73858823       7.86653463       2.31884267
X          2.01480332       7.86656015       1.94555296
X          2.22740414       4.96129541       2.26345386
X          7.35062071       9.55308525       4.08058273
X          1.62680372       9.55306656       3.70729775
X          4.92412302       7.25470567      11.76554654
X         10.64788563       7.25471957      12.13891202
X          9.40816445       7.01933798       4.70134934
X          3.68439923       7.01933434       4.32804712
X          7.68792138      13.85466374       7.93804802
X          7.95120163       4.96131505       2.63677950
X          2.01585417      13.47098724       1.94555974
X          7.73967626      13.47094206       2.31896814
X          1.25794303       9.78848995      12.01298696
X          6.98171462       9.78851178      12.38629532
X          5.52469528      11.84648068      10.32176073
X         11.24849276      11.84646571      10.69508222
X          1.96417359      13.85464335       7.56468474
X         10.98516982       2.95319889      15.99623768
X          5.26137352       2.95321035      15.62294893
X         10.40477568       2.95159243       5.50089231
X          4.68101634       2.95158737       5.12757129
X          2.25454766      13.85621950      12.81245496
X          7.97835338      13.85622549      13.18578660
X          4.63295223       7.25583123       6.51915514
X         10.35672349       7.25582178       6.89246616
X          2.20649160       9.55199767      14.20411656
X          7.93031931       9.55203394      14.57740689
X          7.63927730      15.15550470       9.32982006
X          2.30322554       7.86587466       7.19416744
X          8.02701439       7.86587027       7.56751771
X          4.63261708       1.65064042       6.51919978
X         10.35637923       1.65064031       6.89255499
X          5.60063240       8.94185315      15.25241840
X         11.32433462       8.94189727      15.62574006
X          5.52114092       0.64157643      10.32205983
X         11.24495846       0.64160708      10.69535925
X          5.26170190      14.15722882      15.62398491
X         10.98548796      14.15722567      15.99729263
X          7.68821257       2.65063335       7.93908634
X          1.96442783       2.65060974       7.56572891
X          2.22401245      10.56287986       2.26172554
X          7.94787379      10.56286486       2.63503484
X          5.52128875       6.24492400      10.31997367
X         11.24507448       6.24495136      10.69329445
X          7.64075862       9.55232627       9.32915761
X          1.91696614       9.55228851       8.95586304
X          4.67930265      14.15601284       5.12856701
X          7.97655068       2.65179499      13.18675021
X         10.40310129      14.15605965       5.50186355
X          2.25278906       2.65177290      12.81344553
X         10.31751758       7.27898720       5.62675291
X          4.59375567       7.27901249       5.25345166
X          4.59267166       1.67507181       5.25333578
X         10.31646097       1.67508935       5.62666614
X          2.16732104       9.52882874      12.93838855
X          7.89114915       9.52884496      13.31167628
X         10.60762548       7.27933473      10.87310477
X          4.88382461       7.27929323      10.49977093
X          1.58653873       9.52850336       2.44150665
X          7.31041264       9.52850644       2.81476526
X          7.59995243      15.13128600       8.06408869
X          7.88996833      15.13274823      13.31159564
X          2.16624565      15.13270722      12.93824204
X          7.60022048       9.52874047       8.06342478
X          1.87643982       9.52870831       7.69012764
X          7.31154168       3.92806399       2.81563299
X          4.59237033      12.87946766       5.25311401
X         10.31614775      12.87950691       5.62643465
X          1.87618916      15.13126139       7.69071675
X         10.60885874      12.87974578      10.87390089
X          4.88506076      12.87974815      10.50059009
X         10.89929735      12.88071163      16.12227041
X          5.17550412      12.88070049      15.74893469
X          2.16585772       3.92830429      12.93801003
X          7.88962996       3.92831771      13.31133877
X          5.17381701       7.27912822      15.74828967
X         10.89758489       7.27913902      16.12159318
X          1.87817553       3.92713660       7.69069745
X          7.60195602       3.92714157       8.06403872
X          1.58775702       3.92801994       2.44227700
X          5.17334043       1.67654991      15.74900499
X         10.89714042       1.67654576      16.12229751
X         10.60770236       1.67607215      10.87399743
X          4.88388993       1.67602447      10.50069189
X          1.58661381      15.13181001       2.44235432
X          7.31041256      15.13177155       2.81570038
X          1.58702807      15.13132797       2.46118064
X          7.31082677      15.13128865       2.83452902
X         10.60811346       1.67655407      10.89282848
X          4.88430228       1.67650571      10.51952062
X         10.93151722      12.88880917      16.11795813
X          5.20772351      12.88879815      15.74462277
X         10.60819870       7.27992975      10.89176783
X          4.88439655       7.27988730      10.51843452
X          1.58711003       9.52790966       2.46017318
X          7.31098446       9.52791213       2.83342992
X          7.31201785       3.92751557       2.83433890
X          1.58823979       3.92746533       2.46097541
X         10.60934314      12.88029872      10.89260063
X          4.88554294      12.88030064      10.51929196
X          2.16679116      15.13215108      12.95696620
X          7.89051275      15.13219296      13.33032139
X         10.31701291       1.67564772       5.64538509
X          4.59322381       1.67563010       5.27205409
X          4.57796601       7.27245241       5.24917458
X         10.30172984       7.27242739       5.62247378
X         10.92984087       7.28717172      16.11720494
X          5.20607336       7.28715996      15.74390238
X          7.63420604       3.91910143       8.05971206
X          1.91042458       3.91909618       7.68637091
X          7.89010176       3.92780861      13.33008203
X          2.16633111       3.92779405      12.95675153
X          1.87672393      15.13069384       7.70941373
X          7.60076073       9.52817947       8.08211787
X          1.87698104       9.52814763       7.70882027
X          5.17387459       1.67711698      15.76770187
X         10.89767662       1.67711329      16.14099451
X          4.57658156      12.87291215       5.24879631
X         10.30035851      12.87295196       5.62211839
X          7.89166649       9.52827853      13.33037392
X          2.16783632       9.52826277      12.95708634
X          7.58420912      15.13782792       8.05977131
X          7.58619678       3.93369443       8.05976275
X          1.86241617       3.93369124       7.68642260
X         10.89823964       7.27978747      16.14018303
X          5.17447157       7.27977694      15.76688106
X          7.63247025       9.52064337       8.05903573
X          1.90869098       9.52061121       7.68574004
X          7.63224230      15.12326116       8.05974252
X          1.61882259       9.52045427       2.43710605
X          7.34269589       9.52045491       2.81036639
X         10.34873437       1.68312545       5.62230174
X          4.62494532       1.68310718       5.24897072
X          1.90847579      15.12320520       7.68637069
X         10.90063202      12.88166383      16.14004639
X          5.17683826      12.88165364      15.76671117
X          1.62000757       3.91990674       2.43794303
X          7.34270700      15.12371128       2.81140180
X          1.61890748      15.12375008       2.43805515
X         10.34979804       7.28698503       5.62239132
X          4.59435212       7.27963936       5.27207749
X         10.63999656       1.68413264      10.86970164
X          4.91618379       1.68408566      10.49639652
X          4.91610683       7.28734366      10.49536768
X         10.63990779       7.28738587      10.86870283
X         10.34839375      12.88754386       5.62206871
X          4.62461704      12.88750526       5.24874850
X          7.92186281       3.92019089      13.30697786
X          2.19809049       3.92017839      12.93364811
X          7.34379174       3.91994689       2.81129765
X          5.20562721       1.68459122      15.74466142
X         10.92942783       1.68458728      16.11795315
X          7.92224225      15.12471412      13.30723482
X          2.19851939      15.12467235      12.93388277
X          2.19959833       9.52079688      12.93403018
X          7.92342732       9.52081258      13.30731777
X         10.64110941      12.88785836      10.86956319
X          4.91731281      12.88786092      10.49625137
X          1.86075817       9.53525259       7.68575290
X          7.58453857       9.53528517       8.05904969
X         10.30080306       1.66854383       5.62227531
X          4.57701306       1.66852746       5.24894559
X          2.15058761      15.13925254      12.93385149
X          7.87431098      15.13929228      13.30720275
X          1.57104946      15.13832876       2.43789057
X          7.29484811      15.13828836       2.81123819
X          1.57210594       3.93457607       2.43786741
X          4.86941559      12.87319227      10.49617391
X         10.59321057      12.87318534      10.86948826
X          7.29589887       3.93461999       2.81121401
X          4.86832655       1.66950751      10.49623026
X         10.59213901       1.66955790      10.86953603
X          2.15025503       3.93481091      12.93351326
X          7.87402669       3.93482415      13.30684301
X          5.15799975       7.27253942      15.74404567
X         10.88176775       7.27255289      16.11734984
X          4.62603681       7.28700966       5.24909145
X         10.88273070      12.87375613      16.11886973
X          5.15893681      12.87374660      15.74553447
X          4.86813023       7.27274953      10.49541839
X         10.59193080       7.27279100      10.86875379
X          7.29471891       9.53505008       2.81041441
X          1.57084576       9.53504563       2.43715412
X          7.87544919       9.53537772      13.30731437
X          2.15162053       9.53536012      12.93402607
X          4.59301635      12.88011071       5.27170758
X         10.31679343      12.88015066       5.64502556
X          1.86051602      15.13779349       7.68633158
X          5.15766624       1.67001919      15.74462223
X         10.88146692       1.67001321      16.11791463
X         10.31811288       7.27961269       5.64537862
X          1.87878361       3.92649378       7.70930529
X          7.60256415       3.92649842       8.08264796
X          7.60054953      15.13067127       8.08272887
Fe         1.59185890       3.92551500       2.44182010
Fe         4.59681520       1.67760020       5.25286910
Fe         1.88228340       3.92462450       7.69024800
Fe         4.88800930       1.67853490      10.50024930
Fe         2.16999340       3.92578120      12.93752690
Fe         5.17747540       1.67907740      15.74853590
Fe         1.59064060       9.52599940       2.44103260
Fe         4.59785950       7.28152550       5.25300490
Fe         1.88053780       9.52619300       7.68965160
Fe         4.88795210       7.28180590      10.49930280
Fe         2.17139940       9.52632700      12.93793210
Fe         5.17793750       7.28164690      15.74782770
Fe         1.59072860      15.12930810       2.44190900
Fe         4.59649170      12.88200140       5.25263390
Fe         1.88031880      15.12873980       7.69024580
Fe         4.88915170      12.88226340      10.50012640
Fe         2.17037950      15.13019220      12.93777520
Fe         5.17956920      12.88321290      15.74849600
Fe         7.31564420       3.92554780       2.81517500
Fe        10.32060450       1.67760680       5.62619870
Fe         7.60606440       3.92461850       8.06358920
Fe        10.61182130       1.67857170      10.87355580
Fe         7.89376400       3.92578410      13.31085650
Fe        10.90127630       1.67906270      16.12182790
Fe         7.31451270       9.52599210       2.81429230
Fe        10.32162140       7.28148930       5.62630610
Fe         7.60431790       9.52621430       8.06294890
Fe        10.61175250       7.28183630      10.87263710
Fe         7.89522810       9.52633250      13.31121970
Fe        10.90170500       7.28164680      16.12113160
Fe         7.31452630      15.12925930       2.81525630
Fe        10.32026830      12.88202930       5.62595500
Fe         7.60408050      15.12875460       8.06361950
Fe        10.61294830      12.88225010      10.87343880
Fe         7.89410360      15.13022190      13.31112820
Fe        10.90336290      12.88321320      16.12183080
O          1.61663730       3.96686500       4.22202730
O          1.75153900       2.17790750       2.12874540
O          4.33117640       1.63752090       1.78577060
O          4.76052150       3.42445610       4.93945760
O         11.37595990       0.31223750       5.26444510
O          2.65050770       5.28901550       2.08091570
O          0.22623500       4.30318250       1.36646340
O          3.23065390       1.30232350       4.17725750
O          1.90705490       3.96754340       9.47085270
O          2.04285840       2.17711100       7.37792560
O          4.62224080       1.63572460       7.03337520
O          5.05125160       3.42493420      10.18533130
O         11.66720240       0.31314520      10.51273070
O          2.93867490       5.28945180       7.32836500
O          0.51686210       4.29996490       6.61372330
O          3.52182030       1.30072070       9.42569530
O          2.19641090       3.96785350      14.71762420
O          2.33162180       2.17847570      12.62592100
O          4.91108430       1.63813340      12.28056230
O          5.34083880       3.42611390      15.43475640
O         11.95787760       0.31426220      15.76014150
O          3.22792690       5.28920150      12.57469290
O          0.80491030       4.30270860      11.86125040
O          3.81232230       1.30165880      14.67255580
O          1.61644720       9.56811990       4.22135250
O          1.75347110       7.77889770       2.12786200
O          4.33328110       7.24082880       1.78496430
O          4.75979880       9.02843400       4.93897870
O         11.37761050       5.91607780       5.26532710
O          2.64627980      10.89124050       2.07871390
O          0.22426570       9.90231430       1.36647450
O          3.23308810       6.90552310       4.17696890
O          1.90674060       9.56695550       9.46995460
O          2.04147400       7.77892260       7.37648040
O          4.62202740       7.24138030       7.03309250
O          5.05075380       9.02892760      10.18619690
O         11.66735830       5.91658510      10.51027850
O          2.93694330      10.89078940       7.32783720
O          0.51605330       9.90361270       6.61320620
O          3.52157560       6.90547370       9.42475490
O          2.19553090       9.56646220      14.71806050
O          2.33337220       7.77940620      12.62392810
O          4.91381000       7.23965830      12.27961320
O          5.33878930       9.02881910      15.43466120
O         11.95804860       5.91708110      15.75937560
O          3.22741590      10.89173550      12.57691790
O          0.80659350       9.90229170      11.86190390
O          3.81338460       6.90414040      14.67146660
O          1.61382040      15.16966060       4.22223710
O          1.75403850      13.38291800       2.12701590
O          4.33358350      12.84018970       1.78591030
O          4.75811960      14.62932000       4.94104350
O         11.37820080      11.51859140       5.26309310
O          2.64610480      16.49472490       2.08118120
O          0.22453550      15.50714010       1.36735430
O          3.23144650      12.50514340       4.17634220
O          1.90482480      15.17032470       9.47066380
O          2.04362160      13.38177140       7.37651730
O          4.62291560      12.83984830       7.03267560
O          5.04891290      14.62982710      10.18694780
O         11.67154020      11.51877810      10.51255230
O          2.93693980      16.49353130       7.32867380
O          0.51518970      15.50619930       6.61428590
O          3.52355530      12.50462020       9.42477000
O          2.19564120      15.17208300      14.71824190
O          2.33403630      13.38336570      12.62432660
O          4.91399240      12.84097800      12.28034810
O          5.34012210      14.63074670      15.43616760
O         11.95980500      11.51838400      15.75988080
O          3.22568750      16.49558040      12.57607950
O          0.80417170      15.50551140      11.86220120
O          3.81410000      12.50780010      14.67202290
O          7.34043800       3.96690700       4.59538740
O          7.47533620       2.17796130       2.50208830
O         10.05497860       1.63748470       2.15906430
O         10.48427420       3.42444690       5.31277530
O          5.65219150       0.31221960       4.89111730
O          8.37430340       5.28900010       2.45423660
O          5.95002490       4.30317670       1.73981210
O          8.95440900       1.30228630       4.55057770
O          7.63082920       3.96757190       9.84417360
O          7.76666590       2.17714260       7.75128200
O         10.34599640       1.63570020       7.40673040
O         10.77504520       3.42493960      10.55864640
O          5.94339390       0.31310750      10.13943190
O          8.66245800       5.28941820       7.70167830
O          6.24062580       4.30000730       6.98709900
O          9.24564370       1.30071530       9.79903600
O          7.92016940       3.96784880      15.09093800
O          8.05537220       2.17847730      12.99921460
O         10.63488820       1.63817240      12.65386670
O         11.06464820       3.42606880      15.80803940
O          6.23413750       0.31427040      15.38688450
O          8.95166950       5.28921170      12.94798700
O          6.52866230       4.30268990      12.23460840
O          9.53608140       1.30167990      15.04588660
O          7.34024500       9.56812090       4.59463870
O          7.47724380       7.77887800       2.50115470
O         10.05705780       7.24082980       2.15828530
O         10.48355290       9.02840060       5.31231790
O          5.65384220       5.91611070       4.89201440
O          8.37015240      10.89122710       2.45205300
O          5.94810280       9.90234170       1.73973930
O          8.95684410       6.90552630       4.55026300
O          7.63054350       9.56699100       9.84325370
O          7.76523290       7.77892840       7.74981110
O         10.34580650       7.24137300       7.40641430
O         10.77451680       9.02895600      10.55955650
O          5.94357700       5.91656590      10.13695850
O          8.66074630      10.89080060       7.70114890
O          6.23988970       9.90363380       6.98646020
O          9.24532780       6.90551590       9.79808530
O          7.91936440       9.56650580      15.09135630
O          8.05715010       7.77944280      12.99727630
O         10.63756400       7.23964310      12.65298150
O         11.06252120       9.02884630      15.80802000
O          6.23426410       5.91708210      15.38608910
O          8.95118480      10.89174570      12.95019080
O          6.53036640       9.90231440      12.23523270
O          9.53714040       6.90411560      15.04478550
O          7.33762300      15.16966710       4.59557680
O          7.47780420      13.38288460       2.50038440
O         10.05737030      12.84024850       2.15925170
O         10.48192750      14.62935820       5.31433490
O          5.65442650      11.51862350       4.88971920
O          8.36983480      16.49469980       2.45447690
O          5.94832440      15.50709610       1.74073850
O          8.95524020      12.50515300       4.54963850
O          7.62855650      15.17036190       9.84404150
O          7.76735930      13.38177320       7.74986980
O         10.34666160      12.83991340       7.40601890
O         10.77269260      14.62982540      10.56027000
O          5.94775680      11.51879800      10.13922470
O          8.66070320      16.49354760       7.70202030
O          6.23892870      15.50621300       6.98765050
O          9.24733450      12.50464000       9.79811560
O          7.91942070      15.17209820      15.09156530
O          8.05787220      13.38337600      12.99764550
O         10.63781220      12.84101940      12.65364160
O         11.06390780      14.63073320      15.80946260
O          6.23601670      11.51840210      15.38653350
O          8.94948990      16.49558870      12.94939680
O          6.52795820      15.50550140      12.23553430
O          9.53788850      12.50778400      15.04534650
Si        11.70592430       4.40600250       5.77173490
Si         2.97329400       1.19680040       2.58845310
Si        11.99565690       4.40719570      11.01900490
Si         3.26459340       1.19550390       7.83681300
Si        12.28621870       4.40761310      16.26763430
Si         3.55374530       1.19734460      13.08395770
Si        11.70629030      10.00889580       5.77102680
Si         2.97620470       6.79937820       2.58824830
Si        11.99724860      10.00845770      11.01986310
Si         3.26473750       6.79959970       7.83593130
Si        12.28576090      10.00821800      16.26749410
Si         3.55607500       6.79890080      13.08264110
Si        11.70407180      15.61046460       5.77234110
Si         2.97460700      12.40062500       2.58745360
Si        11.99443560      15.61102180      11.01998810
Si         3.26517700      12.40024870       7.83611260
Si        12.28560700      15.61234480      16.26833230
Si         3.55568660      12.40183090      13.08336930
Si         5.98216460       4.40602210       5.39846190
Si         8.69707020       1.19679230       2.96174750
Si         6.27187690       4.40717670      10.64570740
Si         8.98836150       1.19550360       8.21016620
Si         6.56244730       4.40761900      15.89434810
Si         9.27754200       1.19737850      13.45726550
Si         5.98254560      10.00893250       5.39765300
Si         8.69997740       6.79935990       2.96154140
Si         6.27347340      10.00845170      10.64652260
Si         8.98850360       6.79958050       8.20923710
Si         6.56200470      10.00822670      15.89410960
Si         9.27981980       6.79888990      13.45596910
Si         5.98029170      15.61043630       5.39903650
Si         8.69840630      12.40063130       2.96077310
Si         6.27062640      15.61100080      10.64671740
Si         8.98894160      12.40025340       8.20945510
Si         6.56184210      15.61232410      15.89505280
Si         9.27951630      12.40182700      13.45667020
