   792
 Wannier centres, written by Wannier90 on13Jan2025 at 15:29:09 
X         10.24972444      12.67347954       2.06407408
X          4.52593790      12.67341398       1.69073282
X          7.82316819       4.13435005       9.74899907
X          2.09940561       4.13430098       9.37568907
X          5.10615959      12.67395227      12.18531034
X          1.80878247       4.13388231       4.12697207
X          7.53257800       4.13394167       4.50032667
X         10.82997798      12.67400076      12.55858683
X          4.33452117       7.50308530       1.71442103
X         10.05827579       7.50309859       2.08774966
X          7.63179827       9.30474477       9.77269087
X          1.90798523       9.30469642       9.39939208
X          7.92117169       9.30427625      15.02098760
X          2.19733604       9.30422488      14.64766460
X          4.62377473       7.50360352       6.96268669
X         10.34754965       7.50360558       7.33601078
X          5.10370709       1.47149316      12.18529364
X         10.82750900       1.47154069      12.55859873
X          7.53023706      15.33631804       4.50030924
X          1.80645237      15.33628598       4.12697701
X          2.19896359       3.70562262      14.64734977
X          7.92272709       3.70563018      15.02065484
X          4.33300705       1.89984901       1.71550893
X         10.05683494       1.89982418       2.08881112
X          1.90668793      14.90798429       9.40040889
X          1.61815748       9.30578384       4.15109203
X          7.63042668      14.90803155       9.77378639
X          7.34191520       9.30579143       4.52439369
X         10.34926002      13.10214048       7.33571861
X         10.63922622       7.50198541      12.58273278
X          4.62553145      13.10206425       6.96237414
X          4.91547073       7.50198396      12.20933881
X          5.33703184      14.56633820      15.18015530
X         11.06080330      14.56632364      15.55345566
X          4.81500292       1.46944828       6.93810687
X         10.53876134       1.46943526       7.31147129
X          1.53518286       2.26921136       2.30518164
X          7.25898887       2.26928242       2.67853816
X          2.38843751      15.33832122      14.62297291
X          8.11220934      15.33835024      14.99628272
X         11.06214477       3.36145626      15.55198803
X          5.33833074       3.36149986      15.17870254
X          1.53717486      13.47387236       2.30317429
X          7.26095253      13.47384900       2.67655314
X          1.82662911       2.26868469       7.55467258
X          7.55042192       2.26873127       7.92801251
X          2.04112871      13.44637866       7.12046915
X          7.76486487      13.44639056       7.49382196
X          4.54191321      14.53789033       5.11777595
X         10.26570953      14.53793880       5.49105765
X          4.54408078       3.33338721       5.11617185
X         10.26784336       3.33339172       5.48950057
X         10.84643880       8.93743602      15.98493669
X          5.12270396       8.93740702      15.61157784
X          7.47469567       7.84332578       2.24509441
X         10.55635347      14.53851447      10.73673173
X          1.75092088       7.84332844       1.87179905
X          4.83255976      14.53850888      10.36339715
X          7.83916093       2.26991062      13.17594882
X          2.11539911       2.26990591      12.80264335
X          7.84142452      13.47440863      13.17434019
X          2.11760181      13.47440462      12.80102927
X          7.54911169       7.87033000       7.92671369
X          1.82534505       7.87029950       7.55337514
X         10.55819044       3.33398690      10.73482235
X          4.83439576       3.33397939      10.36150630
X          4.54357527       8.93733124       5.11577340
X         10.26732822       8.93730444       5.48910459
X          2.11710366       7.87048064      12.80069107
X          7.84088519       7.87055100      13.17404157
X          5.04825476       8.96449337       9.93013356
X         10.77200700       8.96452415      10.30349822
X          2.80593148      16.28019777       2.16812188
X          8.52966144      16.28017679       2.54142796
X          8.27933123       5.27551744       2.20494113
X          2.55553185       5.27553322       1.83161947
X          8.27517767      10.87774009       2.20290614
X          2.55129462      10.87776863       1.82957247
X         11.82703570       0.52764882      10.59970088
X          6.10322062       0.52760937      10.22639761
X          0.76902427       4.04332664      11.94424853
X          6.49488588       9.64289410      12.31815851
X          0.77121083       9.64280766      11.94474312
X          6.49272572       4.04335590      12.31767718
X          8.91940754      12.76455331       4.63263054
X          3.19558590      12.76451802       4.25935647
X          3.19762167       7.16497379       4.25985744
X          8.92140493       7.16499551       4.63313975
X          6.13908033       0.32756540      15.13772820
X         11.86282438       0.32759583      15.51098751
X         11.86300552       5.93047274      15.51022149
X          6.13921311       5.93045081      15.13693799
X         11.57235658       5.93008072      10.26113063
X          5.84855950       5.93001512       9.88781216
X          5.85280556      11.53228522       9.88993199
X         11.57658424      11.53225437      10.26326128
X          8.91911409       1.56186601       4.63325927
X          3.19540552       1.56190673       4.25991987
X          2.84191698      10.87745161       7.07868676
X          8.56572039      10.87749315       7.45199728
X          6.49269953      15.24594242      12.31824760
X          0.76887126      15.24595377      11.94492319
X          2.84190054      16.48017350       7.07950770
X          9.10913591      16.28074266      13.03600823
X          8.56566673      16.48020725       7.45285587
X          3.38533576      16.28071683      12.66269026
X          5.55695329       0.32591782       4.64204354
X          9.11078240      10.67690779      13.03702059
X          3.38702025      10.67690740      12.66375988
X         11.28072588       0.32596114       5.01537155
X          5.81341838       6.13093530       4.97883138
X         11.53719133       6.13090874       5.35213843
X          3.77770743       7.16375482      14.75402995
X          9.50147028       7.16374795      15.12733833
X          0.48606232      10.08621196       6.80262396
X          6.20984837      10.08619454       7.17592462
X          6.39564784      11.73298767      15.47355657
X         12.11944148      11.73297136      15.84690407
X          3.77607365       1.56083998      14.75625989
X          9.49980743       1.56085509      15.12961754
X          0.47890396      15.24702853       6.69802545
X          6.20254521      15.24711368       7.07150431
X          5.92158982       4.48699253       1.92833117
X          0.19776021       4.48693669       1.55502846
X          3.49514981      12.32081265       9.61329449
X          9.21890996      12.32086541       9.98666193
X          8.82205539       5.07479257       7.78867326
X          3.09826808       5.07480505       7.41535033
X         11.28285981      11.53187159       5.01405838
X          5.55907327      11.53190553       4.64069294
X          9.50841751      12.32472219      15.23457887
X          3.78463378      12.32472959      14.86125873
X          6.20495056       4.04067316       7.07020282
X          0.48119542       4.04062316       6.69684055
X          3.13255191       5.27589614      12.32565740
X          8.85630056       5.27592587      12.69895292
X          5.91884415      15.69017011       1.92958933
X          0.19498277      15.69014336       1.55625309
X          9.21615958       1.11768437       9.98791972
X          3.49230039       1.11768880       9.61457882
X          9.21489869       6.72323023       9.98764984
X          0.19390578      10.08464058       1.55601696
X          3.49116458       6.72315635       9.61429808
X          5.91778307      10.08469646       1.92927577
X          8.31239887      16.19932069       7.86390689
X          2.58863202      16.19929952       7.49055789
X         11.53761534      11.73346035       5.34977037
X          5.81382570      11.73349889       4.97640011
X          3.38731065       5.07430770      12.66135957
X          9.11105815       5.07433209      13.03465819
X         11.02931491       6.20997280       5.42705433
X          5.30554453       6.20999969       5.05374263
X          8.60292111      10.59786682      13.11194020
X          2.87913610      10.59783712      12.73865191
X          8.60142589      16.20144410      13.11146650
X          2.87764068      16.20142178      12.73814277
X         11.02790951       0.60639188       5.42653033
X          5.30413774       0.60636926       5.05320243
X          2.81003862       5.07455901       2.16792212
X          8.53382977       5.07455909       2.54125755
X          2.29814726      10.59707199       2.24075716
X          8.02201494      10.59707349       2.61407509
X          2.29801186      16.20052809       2.24287879
X          8.02175466      16.20051572       2.61619165
X          5.59542269       6.21072697      10.29900317
X         11.31920943       6.21074772      10.67232465
X         11.61147675      11.81246568      15.92171327
X          5.88768324      11.81246331      15.54837075
X          8.31411523       4.99536356       7.86351485
X          2.59033278       4.99538709       7.49019834
X          6.10729219      11.73325572      10.22624108
X         11.83107861      11.73324826      10.59955355
X          0.66457837      15.42079599       1.56212367
X          6.38837469      15.42073288       1.93550327
X         11.31911046       0.60733492      10.67444595
X          5.59529723       0.60729215      10.30114246
X          0.66603733       4.21643907       1.56089403
X          6.38982551       4.21643818       1.93424880
X          7.80288402       7.56790673       2.67013167
X          2.07911223       7.56792560       2.29684820
X          3.96170437       6.99095577       9.61957805
X          9.68546988       6.99099472       9.99291102
X          3.96336639      12.59137970       9.61920253
X          9.68715362      12.59138503       9.99253738
X          9.68568595       1.38709883       9.99378419
X          3.96186198       1.38706708       9.62046238
X          6.38826805       9.81683719       1.93453409
X          0.66442282       9.81682640       1.56127978
X          5.37641740       9.23988998      10.35518289
X         11.10018406       9.23992673      10.72852876
X         11.60965828       6.21113549      15.92128464
X          5.88587074       6.21111543      15.54799452
X          7.80083848       1.96647972       2.67082774
X          2.07703817       1.96643115       2.29750935
X          5.88582637       0.60847546      15.54878548
X          9.97580165       1.38827071      15.24059001
X          4.25202951       1.38822913      14.86725883
X         11.60958157       0.60848576      15.92205646
X          2.58856486      10.59672078       7.48975916
X          0.95489923      15.41957914       6.80897991
X          8.31236470      10.59673440       7.86306311
X          6.67863812      15.41955868       7.18234560
X          5.37441222      14.84130605      10.35572376
X         11.09820795      14.84132072      10.72902336
X          7.82133298      15.33671541       9.74877018
X          2.09759842      15.33666791       9.37539029
X         10.24775613       1.47114618       2.06378029
X          4.52397393       1.47119200       1.69048858
X          8.92582953      12.32195953       4.73859037
X          3.20207338      12.32191608       4.36528081
X          3.67287070       6.99135401       4.37198960
X          9.39663195       6.99134692       4.74528424
X          0.77551914       4.48593460      12.05017513
X          6.49933458       4.48599168      12.42347476
X          1.24640971       9.81649089      12.05693376
X          6.97019323       9.81646648      12.43025020
X          2.07920445      13.17125181       2.29592450
X          7.80297912      13.17123091       2.66926906
X          5.08572596       9.23954700       5.10737061
X         10.80947976       9.23951935       5.48072150
X          3.26218702       1.24373709       3.77779874
X          8.98595867       1.24374182       4.15110774
X          6.55948963      15.56404075      11.83606222
X          0.83572644      15.56402217      11.46271784
X          2.65926201       7.56828471      12.79232996
X          8.38302887       7.56831133      13.16565980
X         11.38847496       9.23989757      15.97648965
X          5.66473859       9.23986912      15.60312477
X         10.27824623       1.49701880      12.83003972
X          1.25719387      15.31082048       4.39842107
X          4.55444672       1.49697120      12.45673538
X          6.98098384      15.31081568       4.77176269
X          2.36740682       7.56789971       7.54497953
X          8.09116914       7.56790561       7.91829871
X          5.66572624      14.84227139      15.60459170
X         11.38950609      14.84228133      15.97787615
X         11.10021139       3.63660088      10.72752068
X          5.37642430       3.63657690      10.35421512
X          8.09225253       1.96559046       7.91969893
X          2.36846381       1.96555813       7.54633829
X          4.25302431       6.99042456      14.86660611
X          9.97678136       6.99041702      15.23991322
X          6.20455416       9.64387669       7.06879927
X          0.48067178       9.64387015       6.69558708
X         11.39007010       3.63741787      15.97697177
X          5.66627145       3.63744048      15.60368911
X          8.38113586       1.96718358      13.16741405
X          2.65736783       1.96715904      12.79412035
X          9.56921277      12.44921793      14.64592552
X          3.84540495      12.44922636      14.27260500
X          0.54812460       4.35845271       6.21428959
X          6.27190330       4.35850229       6.58766199
X         10.80768527      14.84065547       5.48255242
X          5.08389261      14.84060616       5.10924663
X          2.36905838      13.17042386       7.54545051
X          8.09280022      13.17043417       7.91880225
X          4.81501899      12.67289937       6.93710564
X         10.53878033      12.67298825       7.31044642
X          2.38851995       4.13476778      14.62205760
X          8.11228312       4.13477104      14.99535819
X         10.80995919       3.63582082       5.48112665
X          5.08620196       3.63581625       5.10783179
X          8.38356407      13.17202439      13.16604388
X          2.65972768      13.17199387      12.79271423
X          7.27379016       4.10828456      10.02007715
X          1.55001694       4.10826264       9.64674889
X          3.97655392      12.69949791       1.96182291
X          9.70034402      12.69955148       2.33515566
X          6.98338361       4.10715720       4.77161364
X          1.25958309       4.10710870       4.39824716
X          4.55694967      12.70071602      12.45657104
X         10.28077726      12.70075241      12.82987466
X          8.11220069       9.73287393      14.99610591
X         10.53864261       7.07504232       7.31113729
X          2.38837568       9.73281205      14.62280163
X          4.81486631       7.07504367       6.93781001
X          7.82358851       9.73301671       9.74791717
X          2.09979535       9.73296068       9.37462290
X          4.52630408       7.07480184       1.68964606
X         10.25009265       7.07482484       2.06297395
X          7.79314424      15.19523082      14.57220214
X          2.06938984      15.19519619      14.19886002
X         10.83023573       7.07337927      12.55764445
X          5.10648066       7.07338438      12.18426639
X          1.80913290       9.73439656       4.12601468
X          7.53296324       9.73437932       4.49932500
X          4.49593670       1.61259611       6.51399642
X         10.21970393       1.61259396       6.88734683
X          1.83907788       9.70790075      14.89438781
X          7.56289779       9.70795657      15.26765819
X          4.26557124       7.09989697       7.20943064
X          9.98934525       7.09989604       7.58274782
X          7.27192883      15.31163987      10.02022360
X          1.54819073      15.31160387       9.64684724
X          7.86591825       2.66956236       7.85540478
X          2.14211617       2.66952908       7.48203984
X          3.97456620       1.49620798       1.96195575
X          9.69835264       1.49620021       2.33524544
X          1.61614504      14.90740884       4.15205100
X          7.33997241      14.90742298       4.52539335
X         10.63721535       1.90042501      12.58368354
X          4.91341059       1.90037516      12.21037025
X          7.57458647       2.67040867       2.60657003
X          1.85078500       2.67034912       2.23322461
X         10.87194040      14.13738358      10.66477227
X          5.14815280      14.13737959      10.29146029
X          8.27503127      16.48081577       2.20526119
X          2.55129803      16.48085409       1.83196320
X          5.66352680       5.56939495       5.10258172
X         11.38729290       5.56937396       5.47588486
X          9.98992279      12.69938565       7.58255169
X          7.21393827       9.59115458       4.07521188
X          1.49011065       9.59113672       3.70193799
X          4.26616686      12.69933553       7.20920805
X          7.56341999       4.10843549      15.26745108
X          1.83965058       4.10842542      14.89412219
X          5.43938686      14.13831385      15.54029269
X          4.78743625       7.21663545      11.76018942
X         10.51120822       7.21665110      12.13354892
X         11.16318016      14.13831373      15.91359762
X          5.81184071       0.52705800       4.97771708
X         11.53560433       0.52709146       5.35105180
X          5.84860263       0.32697212       9.89021158
X         11.57241189       0.32703147      10.26351214
X          3.23709814      11.23844413      12.78747696
X          8.96090074      11.23846320      13.16075181
X          8.67013116       0.03229971       7.91302663
X          2.94637635       0.03227541       7.53967465
X          8.15421755       2.67106186      13.10316405
X          2.43046958       2.67104094      12.72986574
X          1.78017855       9.59060227       8.95066649
X          7.50397073       9.59064230       9.32396714
X          4.85696947      14.13672981       5.04497941
X          9.93050227       7.21720764       1.63897096
X          4.20672409       7.21719832       1.26565315
X         10.58077293      14.13678344       5.41827877
X          3.20349457       6.72253433       4.36613276
X          8.92723564       6.72256476       4.73944580
X          8.52980082      10.67643682       2.53887438
X          2.80592966      10.67643660       2.16552202
X          6.50084610      10.08535279      12.42436785
X          0.77696371      10.08522788      12.05111365
X         10.87344677       2.93281296      10.66396677
X          5.14964638       2.93278920      10.29065376
X          1.85243146      13.87504874       2.23234452
X          7.57620947      13.87501938       2.60570133
X         11.16295217       2.93369461      15.91289364
X          5.43914199       2.93371797      15.53960195
X          2.14194888      13.87413907       7.48135744
X          7.86569411      13.87415356       7.85471222
X          8.95925427       0.03435235      13.16022452
X          3.23545269       0.03432934      12.78690211
X         10.58265485       2.93208139       5.41732735
X          8.15622122      13.87575562      13.10223009
X          2.43242088      13.87572599      12.72890028
X          4.85889040       2.93207377       5.04400719
X         11.82698503       6.13138475      10.59709626
X          6.10320352       6.13136310      10.22375053
X          9.50740655       6.72133124      15.23404889
X          3.78365007       6.72133268      14.86071336
X          8.02546003       4.99510684       2.61578493
X          2.30167098       4.99510322       2.24245988
X          6.27164967       9.96249252       6.58713533
X          0.54781783       9.96240444       6.21386553
X          5.91270925      15.24748607       1.82345886
X          0.18897562      15.24748380       1.45000376
X          5.59893548      11.81268946      10.30077276
X         11.32272311      11.81268390      10.67409653
X          7.86416730       8.27162908       7.85402841
X          2.14039499       8.27161090       7.48071257
X          1.61931867       3.70465499       4.15136342
X          7.34312820       3.70470859       4.52472828
X          7.56288405      15.31329287      15.26800391
X          1.83909871      15.31328427      14.89465298
X          4.91666288      13.10317547      12.20968360
X         10.64048346      13.10322041      12.58297259
X          1.90938222       3.70519577       9.40077379
X          7.63318101       3.70523451       9.77409704
X          9.98942809       1.49452307       7.58314310
X          4.26567166       1.49453445       7.20979768
X         10.05973823      13.10260000       2.08917353
X          4.33595582      13.10253200       1.71582139
X          5.30582791      11.81235143       5.05197154
X         11.02960737      11.81234593       5.42532685
X          8.60306326       4.99547462      13.11022570
X          2.87931510       4.99546057      12.73692814
X          7.57561541       8.27140176       2.60570447
X          1.85181199       8.27141559       2.23242158
X          3.48623444       1.56035777       9.50838120
X          9.21003880       1.56035392       9.88174720
X          5.14913413       8.53640539      10.29074808
X         10.87290822       8.53644431      10.66409959
X          3.77857675      12.76720289      14.75502157
X          9.50236124      12.76719950      15.12833631
X          0.95671150       4.21419621       6.80861162
X          6.68047757       4.21423333       7.18198770
X         11.96781645       5.57064039      15.97043873
X          6.24405796       5.57063996      15.59716352
X          2.94675472      11.23720007       7.53894848
X          8.67054705      11.23721540       7.91227504
X          5.43777790       8.53614609      15.53891511
X         11.16151724       8.53617646      15.91225468
X          0.18986850       4.04417893       1.45024643
X          5.91361456       4.04421544       1.82364337
X         11.96902442      11.17170859      15.97062302
X          6.24524644      11.17173650      15.59726889
X          2.43196488       8.27200096      12.72853410
X          8.15576690       8.27203629      13.10186816
X         10.58219173       8.53579822       5.41691596
X          4.85843800       8.53582411       5.04358744
X          6.39389945       0.52885146      15.47358285
X         12.11763783       0.52882582      15.84685463
X          2.94793829       5.63610817       7.53909649
X          8.67171023       5.63609293       7.91240539
X          3.67111158      12.59138339       4.37119800
X          9.39490101      12.59138907       4.74450401
X          3.48715214      12.76358967       9.50862148
X          9.21096802      12.76363205       9.88195059
X          8.85427221      16.48189424      12.70031591
X          3.13047423      16.48185939      12.32699902
X          6.96832203       4.21641169      12.42946182
X          1.24456468       4.21643655      12.05610484
X          8.92456840       1.11927758       4.73962188
X          3.20077677       1.11933629       4.36633225
X          0.77437496      15.68855235      12.05122406
X          6.49811916      15.68852477      12.42458069
X          1.75152848      13.44788355       1.87106256
X          7.47528050      13.44786523       2.24443394
X         10.77250443       3.35997069      10.30269387
X          5.04871914       3.35996350       9.92937665
X          8.05199809       2.24293680      12.74315201
X          2.32825046       2.24292917      12.36985751
X         10.47857603      14.56493079       5.05826805
X          4.75475556      14.56487542       4.68497823
X          6.39368464       6.13207908      15.47282026
X         12.11747728       6.13204265      15.84612291
X          8.82046732      16.27899414       7.78874530
X          3.09669691      16.27895716       7.41539575
X          5.91358592       9.64237791       1.82175812
X          0.18977865       9.64232778       1.44847550
X          9.97776675      12.59351079      15.24025828
X          4.25397712      12.59351089      14.86692268
X         10.22006251      12.81704637       6.88669742
X          4.49630969      12.81698385       6.51335724
X          3.26466495       6.84695509       3.77755076
X          8.98841867       6.84694712       4.15084973
X          2.06980636       3.99072582      14.19828475
X          7.79356147       3.99073732      14.57160374
X          0.83819447       9.96091041      11.46251156
X          6.56196927       9.96082501      11.83581447
X          3.09639722      10.67581312       7.41456759
X          8.82020499      10.67584350       7.78787418
X          3.55322724       6.84628682       9.02539477
X          9.27698551       6.84629472       9.39872638
X          2.65532753       0.03362618       2.29172769
X          8.37906904       0.03362316       2.66501127
X         11.67644024      16.77421537      10.72326564
X          5.95263465      16.77417798      10.34998166
X          4.75724275       3.35988451       4.68349935
X         10.48098350       3.35987253       5.05682295
X          8.05464181      13.44794787      12.74168907
X          2.33080037      13.44793765      12.36837429
X          5.12401487       3.33513253      15.61095636
X         10.84781755       3.33509990      15.98423177
X         11.86491824      11.53201624      15.51065949
X          6.14112436      11.53202805      15.13731268
X          3.78347073       1.11802909      14.86113963
X          9.50726439       1.11802851      15.23444080
X          7.55055579      13.47275963       7.92607243
X          1.82681453      13.47274362       7.55271397
X          2.33032433       7.84395717      12.36795048
X          4.75675403       8.96387066       4.68301348
X          8.05408624       7.84402278      12.74130334
X         10.48051710       8.96385525       5.05634889
X          5.33566657       8.96442110      15.17867588
X         11.05939982       8.96446789      15.55203014
X          2.84374304       5.27580096       7.07914712
X          8.56753015       5.27577466       7.45245990
X          7.47275025       2.24241375       2.24600597
X          1.74897781       2.24233498       1.87265766
X          5.04634820      14.56538165       9.93086861
X         10.77010982      14.56538862      10.30418985
X          1.53679435       7.86990286       2.30417866
X          7.26057514       7.86990343       2.67747376
X         10.55786837       8.93795876      10.73586909
X          4.83409767       8.93792594      10.36250040
X          4.62396757       1.89805349       6.96305556
X         10.34772567       1.89804409       7.33642476
X          6.21022885      15.68997591       7.17612260
X          7.92116133      14.90976634      15.02122793
X          2.19737346      14.90973607      14.64792833
X          0.48638662      15.68984453       6.80285425
X          5.12389394      14.53917411      15.61290584
X         11.38575741      16.77347858       5.47527234
X         10.84768312      14.53915934      15.98621089
X          5.66198576      16.77345066       5.10195492
X          9.56886902       6.84549937      14.64540131
X          3.84512305       6.84552673      14.27207745
X          7.21441349       3.99013480       4.07583424
X          1.49062014       3.99008758       3.70247064
X         10.51178705      12.81776145      12.13409413
X         11.38815483      11.17202993       5.47409370
X          4.78797770      12.81772472      11.76079850
X          5.66440180      11.17204827       5.10071597
X          2.65947159       5.63576725       2.29157601
X          8.38325897       5.63576761       2.66488374
X         10.50926538       1.61481046      12.13436500
X          4.78545962       1.61475744      11.76106007
X         11.68054339      11.17203988      10.72321733
X          5.95675363      11.17203569      10.34987461
X          8.96162111       5.63577923      13.15898348
X          7.21199709      15.19303785       4.07607267
X          3.23788291       5.63576367      12.78567826
X          1.48819926      15.19304095       3.70273413
X          2.03835579       7.84325028       7.12047264
X          7.76210064       7.84326417       7.49380274
X          7.79342540       9.59012665      14.57194463
X          2.06958202       9.59009425      14.19866010
X          1.77882790      15.19348317       8.95123800
X          0.25621432      15.56545987       0.96782695
X          5.98000005      15.56533756       1.34119230
X          9.92898211       1.61432917       1.63964352
X          4.20518011       1.61434092       1.26635143
X          7.50256528      15.19352390       9.32461685
X         10.21981281       7.21772695       6.88701119
X          4.49603570       7.21773209       6.51369513
X          3.55349058       1.24242021       9.02615668
X          9.27728987       1.24244275       9.39949683
X          0.95570843       9.81748286       6.80838645
X          6.67953676       9.81754150       7.18165026
X          5.97973649       9.96150761       1.34037599
X          0.25590806       9.96148267       0.96711459
X          6.21128307       4.48317794       7.17625717
X          0.48752116       4.48312206       6.80289351
X          2.03974237       2.24150713       7.12191459
X          7.76355749       2.24156632       7.49527168
X          8.98680714      12.44703696       4.15013513
X          3.26300819      12.44703475       3.77682817
X          1.25983170       9.70938620       4.39767756
X         10.28091816       7.09836343      12.82927887
X          6.98363780       9.70943799       4.77094314
X          4.55716971       7.09837256      12.45593232
X          6.96793600      15.41997519      12.43039666
X          3.67062782       1.38783993       4.37212567
X          9.39438720       1.38784828       4.74545171
X          1.24416529      15.41993721      12.05706964
X          6.56022826       4.36069733      11.83507203
X          0.83647143       4.36080049      11.46173338
X         11.28276141       5.92974555       5.01607876
X          5.55899921       5.92976627       4.64276337
X          8.85635741      10.87806101      12.70095161
X          3.13260157      10.87805217      12.32767134
X         11.96736423      16.77552367      15.97116746
X          6.24362875      16.77552405      15.59792239
X          1.78103473       3.99017092       8.95124626
X          4.20757037      12.81758609       1.26630768
X          9.93136139      12.81764290       1.63964878
X          7.50480731       3.99019500       9.32457138
X          9.21084345       7.16554105       9.88001673
X          3.48707174       7.16547326       9.50672022
X          3.84355434       1.24420279      14.27295007
X          9.56732305       1.24426800      14.64626943
X          1.55052568       9.70855111       9.64660245
X          7.27432254       9.70858583      10.01990745
X          8.37984520      11.23775008       2.66310250
X          2.65599635      11.23774206       2.28978743
X          0.25736552       4.36057555       0.96679228
X          5.98116026       4.36050751       1.34013024
X          5.95328014       5.57008361      10.34803640
X         11.67704962       5.57007321      10.72132638
X          3.97702049       7.09924178       1.96158966
X          9.70080049       7.09923617       2.33490228
X          9.27845980      12.44729795       9.39843963
X          3.55469237      12.44729346       9.02509194
X          6.27015461      15.56348069       6.58801149
X          0.54640722      15.56360521       6.21467743
Fe         1.59185890       3.92551500       2.44182010
Fe         4.59681520       1.67760020       5.25286910
Fe         1.88228340       3.92462450       7.69024800
Fe         4.88800930       1.67853490      10.50024930
Fe         2.16999340       3.92578120      12.93752690
Fe         5.17747540       1.67907740      15.74853590
Fe         1.59064060       9.52599940       2.44103260
Fe         4.59785950       7.28152550       5.25300490
Fe         1.88053780       9.52619300       7.68965160
Fe         4.88795210       7.28180590      10.49930280
Fe         2.17139940       9.52632700      12.93793210
Fe         5.17793750       7.28164690      15.74782770
Fe         1.59072860      15.12930810       2.44190900
Fe         4.59649170      12.88200140       5.25263390
Fe         1.88031880      15.12873980       7.69024580
Fe         4.88915170      12.88226340      10.50012640
Fe         2.17037950      15.13019220      12.93777520
Fe         5.17956920      12.88321290      15.74849600
Fe         7.31564420       3.92554780       2.81517500
Fe        10.32060450       1.67760680       5.62619870
Fe         7.60606440       3.92461850       8.06358920
Fe        10.61182130       1.67857170      10.87355580
Fe         7.89376400       3.92578410      13.31085650
Fe        10.90127630       1.67906270      16.12182790
Fe         7.31451270       9.52599210       2.81429230
Fe        10.32162140       7.28148930       5.62630610
Fe         7.60431790       9.52621430       8.06294890
Fe        10.61175250       7.28183630      10.87263710
Fe         7.89522810       9.52633250      13.31121970
Fe        10.90170500       7.28164680      16.12113160
Fe         7.31452630      15.12925930       2.81525630
Fe        10.32026830      12.88202930       5.62595500
Fe         7.60408050      15.12875460       8.06361950
Fe        10.61294830      12.88225010      10.87343880
Fe         7.89410360      15.13022190      13.31112820
Fe        10.90336290      12.88321320      16.12183080
O          1.61663730       3.96686500       4.22202730
O          1.75153900       2.17790750       2.12874540
O          4.33117640       1.63752090       1.78577060
O          4.76052150       3.42445610       4.93945760
O         11.37595990       0.31223750       5.26444510
O          2.65050770       5.28901550       2.08091570
O          0.22623500       4.30318250       1.36646340
O          3.23065390       1.30232350       4.17725750
O          1.90705490       3.96754340       9.47085270
O          2.04285840       2.17711100       7.37792560
O          4.62224080       1.63572460       7.03337520
O          5.05125160       3.42493420      10.18533130
O         11.66720240       0.31314520      10.51273070
O          2.93867490       5.28945180       7.32836500
O          0.51686210       4.29996490       6.61372330
O          3.52182030       1.30072070       9.42569530
O          2.19641090       3.96785350      14.71762420
O          2.33162180       2.17847570      12.62592100
O          4.91108430       1.63813340      12.28056230
O          5.34083880       3.42611390      15.43475640
O         11.95787760       0.31426220      15.76014150
O          3.22792690       5.28920150      12.57469290
O          0.80491030       4.30270860      11.86125040
O          3.81232230       1.30165880      14.67255580
O          1.61644720       9.56811990       4.22135250
O          1.75347110       7.77889770       2.12786200
O          4.33328110       7.24082880       1.78496430
O          4.75979880       9.02843400       4.93897870
O         11.37761050       5.91607780       5.26532710
O          2.64627980      10.89124050       2.07871390
O          0.22426570       9.90231430       1.36647450
O          3.23308810       6.90552310       4.17696890
O          1.90674060       9.56695550       9.46995460
O          2.04147400       7.77892260       7.37648040
O          4.62202740       7.24138030       7.03309250
O          5.05075380       9.02892760      10.18619690
O         11.66735830       5.91658510      10.51027850
O          2.93694330      10.89078940       7.32783720
O          0.51605330       9.90361270       6.61320620
O          3.52157560       6.90547370       9.42475490
O          2.19553090       9.56646220      14.71806050
O          2.33337220       7.77940620      12.62392810
O          4.91381000       7.23965830      12.27961320
O          5.33878930       9.02881910      15.43466120
O         11.95804860       5.91708110      15.75937560
O          3.22741590      10.89173550      12.57691790
O          0.80659350       9.90229170      11.86190390
O          3.81338460       6.90414040      14.67146660
O          1.61382040      15.16966060       4.22223710
O          1.75403850      13.38291800       2.12701590
O          4.33358350      12.84018970       1.78591030
O          4.75811960      14.62932000       4.94104350
O         11.37820080      11.51859140       5.26309310
O          2.64610480      16.49472490       2.08118120
O          0.22453550      15.50714010       1.36735430
O          3.23144650      12.50514340       4.17634220
O          1.90482480      15.17032470       9.47066380
O          2.04362160      13.38177140       7.37651730
O          4.62291560      12.83984830       7.03267560
O          5.04891290      14.62982710      10.18694780
O         11.67154020      11.51877810      10.51255230
O          2.93693980      16.49353130       7.32867380
O          0.51518970      15.50619930       6.61428590
O          3.52355530      12.50462020       9.42477000
O          2.19564120      15.17208300      14.71824190
O          2.33403630      13.38336570      12.62432660
O          4.91399240      12.84097800      12.28034810
O          5.34012210      14.63074670      15.43616760
O         11.95980500      11.51838400      15.75988080
O          3.22568750      16.49558040      12.57607950
O          0.80417170      15.50551140      11.86220120
O          3.81410000      12.50780010      14.67202290
O          7.34043800       3.96690700       4.59538740
O          7.47533620       2.17796130       2.50208830
O         10.05497860       1.63748470       2.15906430
O         10.48427420       3.42444690       5.31277530
O          5.65219150       0.31221960       4.89111730
O          8.37430340       5.28900010       2.45423660
O          5.95002490       4.30317670       1.73981210
O          8.95440900       1.30228630       4.55057770
O          7.63082920       3.96757190       9.84417360
O          7.76666590       2.17714260       7.75128200
O         10.34599640       1.63570020       7.40673040
O         10.77504520       3.42493960      10.55864640
O          5.94339390       0.31310750      10.13943190
O          8.66245800       5.28941820       7.70167830
O          6.24062580       4.30000730       6.98709900
O          9.24564370       1.30071530       9.79903600
O          7.92016940       3.96784880      15.09093800
O          8.05537220       2.17847730      12.99921460
O         10.63488820       1.63817240      12.65386670
O         11.06464820       3.42606880      15.80803940
O          6.23413750       0.31427040      15.38688450
O          8.95166950       5.28921170      12.94798700
O          6.52866230       4.30268990      12.23460840
O          9.53608140       1.30167990      15.04588660
O          7.34024500       9.56812090       4.59463870
O          7.47724380       7.77887800       2.50115470
O         10.05705780       7.24082980       2.15828530
O         10.48355290       9.02840060       5.31231790
O          5.65384220       5.91611070       4.89201440
O          8.37015240      10.89122710       2.45205300
O          5.94810280       9.90234170       1.73973930
O          8.95684410       6.90552630       4.55026300
O          7.63054350       9.56699100       9.84325370
O          7.76523290       7.77892840       7.74981110
O         10.34580650       7.24137300       7.40641430
O         10.77451680       9.02895600      10.55955650
O          5.94357700       5.91656590      10.13695850
O          8.66074630      10.89080060       7.70114890
O          6.23988970       9.90363380       6.98646020
O          9.24532780       6.90551590       9.79808530
O          7.91936440       9.56650580      15.09135630
O          8.05715010       7.77944280      12.99727630
O         10.63756400       7.23964310      12.65298150
O         11.06252120       9.02884630      15.80802000
O          6.23426410       5.91708210      15.38608910
O          8.95118480      10.89174570      12.95019080
O          6.53036640       9.90231440      12.23523270
O          9.53714040       6.90411560      15.04478550
O          7.33762300      15.16966710       4.59557680
O          7.47780420      13.38288460       2.50038440
O         10.05737030      12.84024850       2.15925170
O         10.48192750      14.62935820       5.31433490
O          5.65442650      11.51862350       4.88971920
O          8.36983480      16.49469980       2.45447690
O          5.94832440      15.50709610       1.74073850
O          8.95524020      12.50515300       4.54963850
O          7.62855650      15.17036190       9.84404150
O          7.76735930      13.38177320       7.74986980
O         10.34666160      12.83991340       7.40601890
O         10.77269260      14.62982540      10.56027000
O          5.94775680      11.51879800      10.13922470
O          8.66070320      16.49354760       7.70202030
O          6.23892870      15.50621300       6.98765050
O          9.24733450      12.50464000       9.79811560
O          7.91942070      15.17209820      15.09156530
O          8.05787220      13.38337600      12.99764550
O         10.63781220      12.84101940      12.65364160
O         11.06390780      14.63073320      15.80946260
O          6.23601670      11.51840210      15.38653350
O          8.94948990      16.49558870      12.94939680
O          6.52795820      15.50550140      12.23553430
O          9.53788850      12.50778400      15.04534650
Si        11.70592430       4.40600250       5.77173490
Si         2.97329400       1.19680040       2.58845310
Si        11.99565690       4.40719570      11.01900490
Si         3.26459340       1.19550390       7.83681300
Si        12.28621870       4.40761310      16.26763430
Si         3.55374530       1.19734460      13.08395770
Si        11.70629030      10.00889580       5.77102680
Si         2.97620470       6.79937820       2.58824830
Si        11.99724860      10.00845770      11.01986310
Si         3.26473750       6.79959970       7.83593130
Si        12.28576090      10.00821800      16.26749410
Si         3.55607500       6.79890080      13.08264110
Si        11.70407180      15.61046460       5.77234110
Si         2.97460700      12.40062500       2.58745360
Si        11.99443560      15.61102180      11.01998810
Si         3.26517700      12.40024870       7.83611260
Si        12.28560700      15.61234480      16.26833230
Si         3.55568660      12.40183090      13.08336930
Si         5.98216460       4.40602210       5.39846190
Si         8.69707020       1.19679230       2.96174750
Si         6.27187690       4.40717670      10.64570740
Si         8.98836150       1.19550360       8.21016620
Si         6.56244730       4.40761900      15.89434810
Si         9.27754200       1.19737850      13.45726550
Si         5.98254560      10.00893250       5.39765300
Si         8.69997740       6.79935990       2.96154140
Si         6.27347340      10.00845170      10.64652260
Si         8.98850360       6.79958050       8.20923710
Si         6.56200470      10.00822670      15.89410960
Si         9.27981980       6.79888990      13.45596910
Si         5.98029170      15.61043630       5.39903650
Si         8.69840630      12.40063130       2.96077310
Si         6.27062640      15.61100080      10.64671740
Si         8.98894160      12.40025340       8.20945510
Si         6.56184210      15.61232410      15.89505280
Si         9.27951630      12.40182700      13.45667020
