Fe  O Si                                
   1.0000000000000000     
    11.1378646923703197   -0.1757222394215323    0.4740455319676199
    -0.2525351572535304   16.1327579278139268    0.0923371717876424
     0.5448518747185856    0.0771637642051356   14.7399641920841695
   Fe   O    Si
    36   144    36
Direct
  0.1388231231088957  0.2195777519692299  0.1345488325111232
  0.3656216123616255  0.0893282867265304  0.3449567526611219
  0.0918566783913952  0.2138810617992565  0.5269822458531191
  0.4273784870241673  0.1124247677662195  0.6991275068459351
  0.1053409998245819  0.2468166753148846  0.8188207274573736
  0.3439302266091903  0.1323202923695805  0.0151238929005436
  0.1784739638884050  0.5322337202099712  0.1225055474051487
  0.3766394611573136  0.3950078449720006  0.3370216518230678
  0.1393714485831919  0.5391120851855311  0.5112705888359508
  0.4093150001255212  0.4708103156666285  0.6388423817040765
  0.1646170460718891  0.5883632878061663  0.8196209744518952
  0.4019474039085785  0.4514071779552819  0.9703951300895531
  0.1427232619425712  0.8679800054163400  0.1166050225524745
  0.3736444836929080  0.7248436129393639  0.3033055213205225
  0.1828188327889002  0.8764501835491353  0.4934063928369617
  0.4283659807043864  0.7966915850383569  0.6245434540743722
  0.0759690998590632  0.8989765683112305  0.7989416033312835
  0.4837386586354246  0.7894214100215409  0.9502766059012241
  0.5822367759074030  0.1948717190773299  0.1576297554741548
  0.9185765652624274  0.1003367000329792  0.2651684800796840
  0.5571180639483096  0.1310056510249860  0.5058154995933346
  0.8361350581982823  0.1165999436509407  0.6284283900895162
  0.6586213770330731  0.2300930877228087  0.7885668342881659
  0.7523755012660328  0.1494302299407206  0.9444271419468367
  0.6453175664196096  0.5501625103106068  0.1443352618163327
  0.8641513084733297  0.4246374670001408  0.3316852700862082
  0.6586542901892731  0.5305995902651670  0.4713158170227329
  0.8430268702010753  0.5005662199100543  0.6566829286070880
  0.7234510856975188  0.6664711949841993  0.7807969839822754
  0.8337994906559000  0.4358188293154617  0.9922503705764960
  0.5854791157748852  0.8711341946526259  0.1330111795817432
  0.9571143252915628  0.7624756926105209  0.2995928929635716
  0.6644641771719828  0.8603919976307230  0.4761791819698121
  0.8930537255216557  0.8085135297380242  0.6156904169441286
  0.7168892685460742  0.9421606437026312  0.9579058524434395
  0.9002958437357608  0.7590260655654943  0.9749019704998455
  0.1400539926026702  0.2552465198902660  0.2529008886324183
  0.0482535913049559  0.1198298488157713  0.1737047343863229
  0.2504865913541983  0.1338921620318533  0.1330502352335301
  0.4162202486509010  0.1910353411620687  0.3121574409415498
  0.0430099701474636  0.0049990238488542  0.2665107066401828
  0.2504132179761471  0.2952575378906472  0.0876532280478778
  0.0123914675885604  0.2679916397269652  0.0974097175734278
  0.2246545053840984  0.0903198658116792  0.3002888819176564
  0.9502930112906306  0.2022984333105656  0.6079339250100846
  0.1618939163843834  0.1139031746479946  0.5074933618033259
  0.3919650151549768  0.0932851927673443  0.4694197686403664
  0.5004511493134292  0.1970627852818145  0.6080179286989275
  0.9394654804455334  0.0450772146846803  0.5764821910145561
  0.1703643440664175  0.3036025248149057  0.5767367894527728
  0.0401068656479973  0.2518844147549119  0.4223278452096449
  0.2969109002254666  0.1060086106686401  0.6397056270052471
  0.0919564986976325  0.2639318308302075  0.9359529059133286
  0.1281456840730938  0.1365698718201980  0.8070927667578367
  0.3487179547454904  0.0711518392123115  0.8001366946149047
  0.3805951072170615  0.2116725054727896  0.9264961215956218
  0.8719019855455267 -0.0009323628316061  0.9663432136295192
  0.2128345629917220  0.3240488775924462  0.7763808866723342
  0.9868764784440882  0.2733015478848912  0.7504212606567039
  0.2219067986827994  0.0918359421628932  0.9593851576713720
  0.1789607963006503  0.5521300324175377  0.2398368336051510
  0.1174990157415228  0.4278541557720861  0.1370689780142354
  0.3223958114501671  0.4642366654542207  0.0900532544363779
  0.3742215788967704  0.5038455752381659  0.3603100286824780
  0.9905141241001290  0.3663539605828831  0.2982269950527729
  0.2678382859571958  0.6182334681462972  0.0783305246075936
  0.0402546576421205  0.5756839204528291  0.0992778730899860
  0.3019903503061049  0.3778598070366215  0.2377590846285586
  0.9968750427225495  0.5487476195395977  0.6018307413521045
  0.1062136091370777  0.4360929800185747  0.4748316667080357
  0.3130004993833894  0.3505479364715863  0.4398614217024986
  0.3846043393925407  0.5754192904997665  0.6763774033720831
  0.8836158908229699  0.3534770772893372  0.6054526965897311
  0.1948424107806988  0.6380605259830444  0.5543985655502904
  0.1031685862847426  0.5878153551954065  0.4071718938816457
  0.2645334644513923  0.4686812326983231  0.5689351034873243
  0.1202556419096771  0.5473808541119252  0.9309197516297086
  0.1739957216317413  0.4892709935468060  0.7697460864678268
  0.3912729855386011  0.4328460997627975  0.7530684979207317
  0.4703672567841074  0.5468840040019763  0.9209332575499058
  0.9617743705883121  0.3830639423962845  0.9451882371561601
  0.2481513397165137  0.6750446190037447  0.8593615790193471
  0.0847950824184198  0.6433651982494027  0.7381530626591956
  0.2712938435266147  0.4182060935772966  0.9128156827918548
  0.0895534283883002  0.8460739387865640  0.2388562265328467
  0.1517617933955200  0.7624930792030433  0.0854989973983182
  0.3976735863396818  0.7494135392277509  0.0477842423196281
  0.3889993978561397  0.8304321406840030  0.3327397066681185
  0.0443324492445555  0.6761304430981828  0.2646263921573607
  0.2316927077423321  0.9793974899095969  0.1647281965621559
  0.0266718722348128  0.9362163881218369  0.0822429052039581
  0.2883286842488665  0.7371671189329709  0.2099307356164663
  0.0284942259331466  0.8855742339667056  0.5703236191895418
  0.1402669555036587  0.7763676248447473  0.4458359981867909
  0.3364416006517710  0.6818288040883569  0.4137913886567013
  0.3881581150451269  0.8912020246004673  0.6835148408175559
  0.9789143441090941  0.7182805383172030  0.6004376108295850
  0.2543162566936056  0.9654977011768735  0.5434357526451656
  0.1466537618853942  0.9319006096282271  0.3940392987273197
  0.2924155097839162  0.7978823421214242  0.5466586271494291
  0.9991368551608251  0.8566319739071921  0.9223573598809069
  0.1833453404682221  0.8202433213665280  0.7817512397230644
  0.3652158696327748  0.7321889826919961  0.7150795866351679
  0.2602622549396127  0.8962830386006829  0.0296435105328420
  0.0130558422680270  0.6849187052781824  0.9547317584542661
  0.1591536546352528  0.9741352847736402  0.8575061989537164
  0.0345293504049830  0.9797321425203825  0.7198455512096191
  0.3810756448105145  0.8123334381344411  0.8698751398333795
  0.6444175219520903  0.2121881405268568  0.2649691319517604
  0.5634622084628462  0.0861165681296390  0.1874814203806478
  0.7097157556288666  0.1368226676734638  0.0683899784410922
  0.9107587749907768  0.2079357398541895  0.2843971828255583
  0.4136508044761740  0.9899449645064946  0.3161401906636964
  0.6155771717689112  0.3010406511470010  0.1277602673592073
  0.4716920227327302  0.1982053361001676  0.0660526396949790
  0.8029364296261846  0.0512426070175554  0.2019453849303615
  0.6648680457503133  0.3205620228590336  0.5726132097516853
  0.6163191765493151  0.0701236487868576  0.4111414041589377
  0.8661129095615980  0.0701988158540316  0.3783881128222238
  0.7612693892150525  0.2085015324483686  0.6744718297859315
  0.5069636432153850  0.0332408177790693  0.6150012019730008
  0.8210589107573055  0.3542239260362284  0.4283901160939735
  0.5671265519322090  0.2279214773935509  0.4416648913830684
  0.7291855098971679  0.1106716334565710  0.5328762422164893
  0.6200773905964969  0.2338206908227076  0.9188146154591188
  0.5694190915689822  0.1255522971842995  0.7648378276489061
  0.7727039837670175  0.0468468883496702  0.7177367888679275
  0.8786099324569481  0.2127410678540769  0.9610008064796871
  0.4137864599401437  0.0329305043270989  0.0341777730296983
  0.7818290242929349  0.3204799192516123  0.7682637255822715
  0.5493889277775419  0.2904082745925566  0.7382534882728037
  0.7768483333120728  0.1659157318207657  0.8263382816968982
  0.5619321824790973  0.5042233546732082  0.2405190722533205
  0.7080900611819781  0.4532377042286759  0.0937777771890839
  0.8329550127817708  0.3368391160084289  0.0661364640378800
  0.9437940274290266  0.5217441773888333  0.2945980450939594
  0.5103130287263075  0.3383497581689866  0.3162766382908672
  0.7193989411049200  0.6293234979415577  0.2018816102273709
  0.6086867884116798  0.5988343324292660  0.0432305650017433
  0.7659589846442472  0.3783196817248721  0.2455846787454677
  0.5472415810220800  0.5377804334254840  0.5770105720149145
  0.5904431558939554  0.4379404499481201  0.4484685491499986
  0.7515461900185519  0.5047636398837181  0.3736912456545813
  0.8517343517591001  0.6145365462028566  0.7078253715604911
  0.4451663248861373  0.3662084502183404  0.5997219334514966
  0.7293700586228452  0.6293232584330994  0.5123482974649733
  0.5693850640681699  0.5930158154255488  0.4019523671874979
  0.7744319261558250  0.4744720961607897  0.5461102364799472
  0.7010259229790989  0.5869386545362403  0.8651116281949464
  0.7043533410987943  0.4653759038333252  0.7188003389473764
  0.9075963538912106  0.4594486338527946  0.7578428103332298
  0.8844768480428133  0.5414239087711212  0.9818620224638609
  0.4869235812044566  0.3571375509493109  0.9839960614554878
  0.7593291057247923  0.7688971791328700  0.7152661839862771
  0.5998497997112586  0.6406905121510739  0.7153710266121378
  0.7287961306101051  0.4229440703327312  0.9017725506044327
  0.5999756864010053  0.8994398352871680  0.2498913063421781
  0.6292799323671658  0.7666360000615889  0.1467497433989393
  0.8186251268604774  0.6949047116588009  0.0554748246602521
  0.9309709178514440  0.8628029748547623  0.3579672601304741
  0.4560790566251158  0.6405153481015300  0.2615883447801566
  0.6729766638047880  0.9709575884307375  0.0850306044951515
  0.4307485299120125  0.9008657244275273  0.1429876644839222
  0.8495498276486106  0.7719537588269593  0.2113228168934597
  0.5754875475597747  0.8679541316047860  0.6001896900015068
  0.6526605297647562  0.7653895882791656  0.4114319757101011
  0.8760224799595913  0.6990515133744459  0.3852280110706382
  0.8339315946486053  0.9074231170926811  0.6462530261764566
  0.4965300441328007  0.7062573254218710  0.5738920803096076
  0.7576165030342351  0.9529011507134461  0.4783677278601374
  0.5452292519453816  0.9081842203020415  0.4264244001553355
  0.7870043662858345  0.7920526328560398  0.5243293708597495
  0.5899705766227162  0.8590624796522591  0.0009682578454989
  0.7558181204982393  0.8942324527197558  0.8464250719946974
  0.9596254852328153  0.8292831765665991  0.7526631161033706
  0.8301111613260848  0.8515804030948472  0.0308056458917344
  0.5687026052084564  0.7035337983498086  0.9023013976625073
  0.6656542942830467  0.0451739051526376  0.8991646178218693
  0.5735808524653172  0.9622497646982661  0.7598476467644873
  0.8145794106144159  0.7368448485902249  0.8668808193425401
  0.0192160892614447  0.2698885236174387  0.3187936917231224
  0.1641960845430127  0.0628224052971755  0.2064072211096890
  0.8824828771175988  0.2764824173847796  0.6808843277310740
  0.2730712212765772  0.0654613454617875  0.5405035656536652
  0.9614277558488489  0.2896383256437592  0.9987909644355161
  0.2115548551475656  0.0694678087937975  0.8512279595325339
  0.0587175119686360  0.5827057295525145  0.3046978454721287
  0.2480833958613110  0.3826160189622754  0.1405842605870145
  0.9895809332626553  0.6354300603916926  0.6623734528088784
  0.2155963192220351  0.3840120712145108  0.5184003471086327
  0.0116929576925628  0.5896695312535413  0.9924267546289836
  0.2577263734600610  0.4154055098781779  0.8060007984115001
  0.0510505152108605  0.9150376778800303  0.3183714254127717
  0.2767934786478216  0.7151368641277150  0.1039825176422238
  0.9640107587966638  0.9606541711807158  0.6304796818289777
  0.2397937745481519  0.7172821022186733  0.4904886993241972
  0.9419265572762974  0.9206314307655212  0.0013655551313891
  0.2896932775485114  0.7622625111374524  0.8078394999817361
  0.5383701101552457  0.2433921909415570  0.3381541326677467
  0.6927882570144291  0.0557686041922335  0.1395673246781018
  0.5378492923293841  0.2969016194682619  0.6269735971802836
  0.7498626402839692  0.0475105624039635  0.4455040980594435
  0.4920262197338504  0.2599399824542789  0.9731668173525849
  0.6520543837795564  0.0439461566315490  0.7878976242474823
  0.4913689141857860  0.5600282853506225  0.3205047745355505
  0.7285609257238036  0.3629093187747784  0.1465152459873449
  0.5120645941520502  0.6232352503801117  0.6359993189226423
  0.7828245152736202  0.3726414577904755  0.5325819699826913
  0.5832058118098576  0.6073853363869135  0.9358079635814879
  0.7766482239707105  0.4182782983278909  0.7978891040923499
  0.4878583684092791  0.9060716975289297  0.3280043643716282
  0.7555486411131224  0.7214147612524908  0.1556168403811738
  0.5167822946088128  0.9425713869611767  0.6637343669842697
  0.7600116074547284  0.7129722145994798  0.4552694004141504
  0.3447127787403760  0.9573329788276763  0.0887126068617654
  0.8213565840733137  0.8184193294217762  0.7986802004690999

  0.00000000E+00  0.00000000E+00  0.00000000E+00
  0.00000000E+00  0.00000000E+00  0.00000000E+00
  0.00000000E+00  0.00000000E+00  0.00000000E+00
  0.00000000E+00  0.00000000E+00  0.00000000E+00
  0.00000000E+00  0.00000000E+00  0.00000000E+00
  0.00000000E+00  0.00000000E+00  0.00000000E+00
  0.00000000E+00  0.00000000E+00  0.00000000E+00
  0.00000000E+00  0.00000000E+00  0.00000000E+00
  0.00000000E+00  0.00000000E+00  0.00000000E+00
  0.00000000E+00  0.00000000E+00  0.00000000E+00
  0.00000000E+00  0.00000000E+00  0.00000000E+00
  0.00000000E+00  0.00000000E+00  0.00000000E+00
  0.00000000E+00  0.00000000E+00  0.00000000E+00
  0.00000000E+00  0.00000000E+00  0.00000000E+00
  0.00000000E+00  0.00000000E+00  0.00000000E+00
  0.00000000E+00  0.00000000E+00  0.00000000E+00
  0.00000000E+00  0.00000000E+00  0.00000000E+00
  0.00000000E+00  0.00000000E+00  0.00000000E+00
  0.00000000E+00  0.00000000E+00  0.00000000E+00
  0.00000000E+00  0.00000000E+00  0.00000000E+00
  0.00000000E+00  0.00000000E+00  0.00000000E+00
  0.00000000E+00  0.00000000E+00  0.00000000E+00
  0.00000000E+00  0.00000000E+00  0.00000000E+00
  0.00000000E+00  0.00000000E+00  0.00000000E+00
  0.00000000E+00  0.00000000E+00  0.00000000E+00
  0.00000000E+00  0.00000000E+00  0.00000000E+00
  0.00000000E+00  0.00000000E+00  0.00000000E+00
  0.00000000E+00  0.00000000E+00  0.00000000E+00
  0.00000000E+00  0.00000000E+00  0.00000000E+00
  0.00000000E+00  0.00000000E+00  0.00000000E+00
  0.00000000E+00  0.00000000E+00  0.00000000E+00
  0.00000000E+00  0.00000000E+00  0.00000000E+00
  0.00000000E+00  0.00000000E+00  0.00000000E+00
  0.00000000E+00  0.00000000E+00  0.00000000E+00
  0.00000000E+00  0.00000000E+00  0.00000000E+00
  0.00000000E+00  0.00000000E+00  0.00000000E+00
  0.00000000E+00  0.00000000E+00  0.00000000E+00
  0.00000000E+00  0.00000000E+00  0.00000000E+00
  0.00000000E+00  0.00000000E+00  0.00000000E+00
  0.00000000E+00  0.00000000E+00  0.00000000E+00
  0.00000000E+00  0.00000000E+00  0.00000000E+00
  0.00000000E+00  0.00000000E+00  0.00000000E+00
  0.00000000E+00  0.00000000E+00  0.00000000E+00
  0.00000000E+00  0.00000000E+00  0.00000000E+00
  0.00000000E+00  0.00000000E+00  0.00000000E+00
  0.00000000E+00  0.00000000E+00  0.00000000E+00
  0.00000000E+00  0.00000000E+00  0.00000000E+00
  0.00000000E+00  0.00000000E+00  0.00000000E+00
  0.00000000E+00  0.00000000E+00  0.00000000E+00
  0.00000000E+00  0.00000000E+00  0.00000000E+00
  0.00000000E+00  0.00000000E+00  0.00000000E+00
  0.00000000E+00  0.00000000E+00  0.00000000E+00
  0.00000000E+00  0.00000000E+00  0.00000000E+00
  0.00000000E+00  0.00000000E+00  0.00000000E+00
  0.00000000E+00  0.00000000E+00  0.00000000E+00
  0.00000000E+00  0.00000000E+00  0.00000000E+00
  0.00000000E+00  0.00000000E+00  0.00000000E+00
  0.00000000E+00  0.00000000E+00  0.00000000E+00
  0.00000000E+00  0.00000000E+00  0.00000000E+00
  0.00000000E+00  0.00000000E+00  0.00000000E+00
  0.00000000E+00  0.00000000E+00  0.00000000E+00
  0.00000000E+00  0.00000000E+00  0.00000000E+00
  0.00000000E+00  0.00000000E+00  0.00000000E+00
  0.00000000E+00  0.00000000E+00  0.00000000E+00
  0.00000000E+00  0.00000000E+00  0.00000000E+00
  0.00000000E+00  0.00000000E+00  0.00000000E+00
  0.00000000E+00  0.00000000E+00  0.00000000E+00
  0.00000000E+00  0.00000000E+00  0.00000000E+00
  0.00000000E+00  0.00000000E+00  0.00000000E+00
  0.00000000E+00  0.00000000E+00  0.00000000E+00
  0.00000000E+00  0.00000000E+00  0.00000000E+00
  0.00000000E+00  0.00000000E+00  0.00000000E+00
  0.00000000E+00  0.00000000E+00  0.00000000E+00
  0.00000000E+00  0.00000000E+00  0.00000000E+00
  0.00000000E+00  0.00000000E+00  0.00000000E+00
  0.00000000E+00  0.00000000E+00  0.00000000E+00
  0.00000000E+00  0.00000000E+00  0.00000000E+00
  0.00000000E+00  0.00000000E+00  0.00000000E+00
  0.00000000E+00  0.00000000E+00  0.00000000E+00
  0.00000000E+00  0.00000000E+00  0.00000000E+00
  0.00000000E+00  0.00000000E+00  0.00000000E+00
  0.00000000E+00  0.00000000E+00  0.00000000E+00
  0.00000000E+00  0.00000000E+00  0.00000000E+00
  0.00000000E+00  0.00000000E+00  0.00000000E+00
  0.00000000E+00  0.00000000E+00  0.00000000E+00
  0.00000000E+00  0.00000000E+00  0.00000000E+00
  0.00000000E+00  0.00000000E+00  0.00000000E+00
  0.00000000E+00  0.00000000E+00  0.00000000E+00
  0.00000000E+00  0.00000000E+00  0.00000000E+00
  0.00000000E+00  0.00000000E+00  0.00000000E+00
  0.00000000E+00  0.00000000E+00  0.00000000E+00
  0.00000000E+00  0.00000000E+00  0.00000000E+00
  0.00000000E+00  0.00000000E+00  0.00000000E+00
  0.00000000E+00  0.00000000E+00  0.00000000E+00
  0.00000000E+00  0.00000000E+00  0.00000000E+00
  0.00000000E+00  0.00000000E+00  0.00000000E+00
  0.00000000E+00  0.00000000E+00  0.00000000E+00
  0.00000000E+00  0.00000000E+00  0.00000000E+00
  0.00000000E+00  0.00000000E+00  0.00000000E+00
  0.00000000E+00  0.00000000E+00  0.00000000E+00
  0.00000000E+00  0.00000000E+00  0.00000000E+00
  0.00000000E+00  0.00000000E+00  0.00000000E+00
  0.00000000E+00  0.00000000E+00  0.00000000E+00
  0.00000000E+00  0.00000000E+00  0.00000000E+00
  0.00000000E+00  0.00000000E+00  0.00000000E+00
  0.00000000E+00  0.00000000E+00  0.00000000E+00
  0.00000000E+00  0.00000000E+00  0.00000000E+00
  0.00000000E+00  0.00000000E+00  0.00000000E+00
  0.00000000E+00  0.00000000E+00  0.00000000E+00
  0.00000000E+00  0.00000000E+00  0.00000000E+00
  0.00000000E+00  0.00000000E+00  0.00000000E+00
  0.00000000E+00  0.00000000E+00  0.00000000E+00
  0.00000000E+00  0.00000000E+00  0.00000000E+00
  0.00000000E+00  0.00000000E+00  0.00000000E+00
  0.00000000E+00  0.00000000E+00  0.00000000E+00
  0.00000000E+00  0.00000000E+00  0.00000000E+00
  0.00000000E+00  0.00000000E+00  0.00000000E+00
  0.00000000E+00  0.00000000E+00  0.00000000E+00
  0.00000000E+00  0.00000000E+00  0.00000000E+00
  0.00000000E+00  0.00000000E+00  0.00000000E+00
  0.00000000E+00  0.00000000E+00  0.00000000E+00
  0.00000000E+00  0.00000000E+00  0.00000000E+00
  0.00000000E+00  0.00000000E+00  0.00000000E+00
  0.00000000E+00  0.00000000E+00  0.00000000E+00
  0.00000000E+00  0.00000000E+00  0.00000000E+00
  0.00000000E+00  0.00000000E+00  0.00000000E+00
  0.00000000E+00  0.00000000E+00  0.00000000E+00
  0.00000000E+00  0.00000000E+00  0.00000000E+00
  0.00000000E+00  0.00000000E+00  0.00000000E+00
  0.00000000E+00  0.00000000E+00  0.00000000E+00
  0.00000000E+00  0.00000000E+00  0.00000000E+00
  0.00000000E+00  0.00000000E+00  0.00000000E+00
  0.00000000E+00  0.00000000E+00  0.00000000E+00
  0.00000000E+00  0.00000000E+00  0.00000000E+00
  0.00000000E+00  0.00000000E+00  0.00000000E+00
  0.00000000E+00  0.00000000E+00  0.00000000E+00
  0.00000000E+00  0.00000000E+00  0.00000000E+00
  0.00000000E+00  0.00000000E+00  0.00000000E+00
  0.00000000E+00  0.00000000E+00  0.00000000E+00
  0.00000000E+00  0.00000000E+00  0.00000000E+00
  0.00000000E+00  0.00000000E+00  0.00000000E+00
  0.00000000E+00  0.00000000E+00  0.00000000E+00
  0.00000000E+00  0.00000000E+00  0.00000000E+00
  0.00000000E+00  0.00000000E+00  0.00000000E+00
  0.00000000E+00  0.00000000E+00  0.00000000E+00
  0.00000000E+00  0.00000000E+00  0.00000000E+00
  0.00000000E+00  0.00000000E+00  0.00000000E+00
  0.00000000E+00  0.00000000E+00  0.00000000E+00
  0.00000000E+00  0.00000000E+00  0.00000000E+00
  0.00000000E+00  0.00000000E+00  0.00000000E+00
  0.00000000E+00  0.00000000E+00  0.00000000E+00
  0.00000000E+00  0.00000000E+00  0.00000000E+00
  0.00000000E+00  0.00000000E+00  0.00000000E+00
  0.00000000E+00  0.00000000E+00  0.00000000E+00
  0.00000000E+00  0.00000000E+00  0.00000000E+00
  0.00000000E+00  0.00000000E+00  0.00000000E+00
  0.00000000E+00  0.00000000E+00  0.00000000E+00
  0.00000000E+00  0.00000000E+00  0.00000000E+00
  0.00000000E+00  0.00000000E+00  0.00000000E+00
  0.00000000E+00  0.00000000E+00  0.00000000E+00
  0.00000000E+00  0.00000000E+00  0.00000000E+00
  0.00000000E+00  0.00000000E+00  0.00000000E+00
  0.00000000E+00  0.00000000E+00  0.00000000E+00
  0.00000000E+00  0.00000000E+00  0.00000000E+00
  0.00000000E+00  0.00000000E+00  0.00000000E+00
  0.00000000E+00  0.00000000E+00  0.00000000E+00
  0.00000000E+00  0.00000000E+00  0.00000000E+00
  0.00000000E+00  0.00000000E+00  0.00000000E+00
  0.00000000E+00  0.00000000E+00  0.00000000E+00
  0.00000000E+00  0.00000000E+00  0.00000000E+00
  0.00000000E+00  0.00000000E+00  0.00000000E+00
  0.00000000E+00  0.00000000E+00  0.00000000E+00
  0.00000000E+00  0.00000000E+00  0.00000000E+00
  0.00000000E+00  0.00000000E+00  0.00000000E+00
  0.00000000E+00  0.00000000E+00  0.00000000E+00
  0.00000000E+00  0.00000000E+00  0.00000000E+00
  0.00000000E+00  0.00000000E+00  0.00000000E+00
  0.00000000E+00  0.00000000E+00  0.00000000E+00
  0.00000000E+00  0.00000000E+00  0.00000000E+00
  0.00000000E+00  0.00000000E+00  0.00000000E+00
  0.00000000E+00  0.00000000E+00  0.00000000E+00
  0.00000000E+00  0.00000000E+00  0.00000000E+00
  0.00000000E+00  0.00000000E+00  0.00000000E+00
  0.00000000E+00  0.00000000E+00  0.00000000E+00
  0.00000000E+00  0.00000000E+00  0.00000000E+00
  0.00000000E+00  0.00000000E+00  0.00000000E+00
  0.00000000E+00  0.00000000E+00  0.00000000E+00
  0.00000000E+00  0.00000000E+00  0.00000000E+00
  0.00000000E+00  0.00000000E+00  0.00000000E+00
  0.00000000E+00  0.00000000E+00  0.00000000E+00
  0.00000000E+00  0.00000000E+00  0.00000000E+00
  0.00000000E+00  0.00000000E+00  0.00000000E+00
  0.00000000E+00  0.00000000E+00  0.00000000E+00
  0.00000000E+00  0.00000000E+00  0.00000000E+00
  0.00000000E+00  0.00000000E+00  0.00000000E+00
  0.00000000E+00  0.00000000E+00  0.00000000E+00
  0.00000000E+00  0.00000000E+00  0.00000000E+00
  0.00000000E+00  0.00000000E+00  0.00000000E+00
  0.00000000E+00  0.00000000E+00  0.00000000E+00
  0.00000000E+00  0.00000000E+00  0.00000000E+00
  0.00000000E+00  0.00000000E+00  0.00000000E+00
  0.00000000E+00  0.00000000E+00  0.00000000E+00
  0.00000000E+00  0.00000000E+00  0.00000000E+00
  0.00000000E+00  0.00000000E+00  0.00000000E+00
  0.00000000E+00  0.00000000E+00  0.00000000E+00
  0.00000000E+00  0.00000000E+00  0.00000000E+00
  0.00000000E+00  0.00000000E+00  0.00000000E+00
  0.00000000E+00  0.00000000E+00  0.00000000E+00
  0.00000000E+00  0.00000000E+00  0.00000000E+00
  0.00000000E+00  0.00000000E+00  0.00000000E+00
  0.00000000E+00  0.00000000E+00  0.00000000E+00
  0.00000000E+00  0.00000000E+00  0.00000000E+00
  0.00000000E+00  0.00000000E+00  0.00000000E+00
  0.00000000E+00  0.00000000E+00  0.00000000E+00
  0.00000000E+00  0.00000000E+00  0.00000000E+00
  0.00000000E+00  0.00000000E+00  0.00000000E+00
