   791
 Wannier centres, written by Wannier90 on13Jan2025 at 21:58:30 
X          7.89680162       7.47176029      10.80744441
X         10.67028707       7.29930209      11.56608714
X          6.37889938       9.71843907       6.39519917
X          2.54893116      14.29927114       0.44954148
X          9.20325019      14.48515616      10.13962436
X          7.15369347      12.32888651       6.23777146
X         11.26387824       6.29388894      14.32099790
X          4.59369481       3.31155441      13.62945288
X          1.43561796      12.56926816       6.50593596
X          6.61460566       6.79505070       6.87761754
X         10.09406179      13.73164534       5.85271113
X          1.05593806       7.01229700       2.24175445
X          4.31974763       9.23465297      10.39255147
X          6.88739677       1.07665787       6.17028430
X          4.25883198      14.29896230      10.47229002
X          8.90662449      13.51600873       1.15648076
X          0.34675838      15.84988378      10.92080403
X          1.14521177       7.09551449       6.92425513
X          6.58226519      15.28250769      11.72423561
X          8.42053093      12.35624075      10.90363253
X          6.18799220       1.37428709       3.24547526
X          9.25124126       2.45121694      12.55655833
X          8.37653525       9.34546043      13.09798167
X         10.39819539       0.62223227       8.97672314
X         10.12261789       0.18936984      14.65093665
X          2.10615616       9.11765837       3.58068694
X          0.14281817       6.11432438       4.43405743
X          1.95516801       8.98679796      13.83465830
X         10.32930418       5.59350104       9.27783016
X          2.95179021       4.55695756       1.38021710
X          4.76219399      10.27929379       4.16752113
X          2.42012715      10.24471689       8.53666824
X          3.99384523       8.08604598       5.61472709
X          7.89658242       9.94045981       3.60293864
X          9.04336898       5.75256293       6.63265826
X          8.48747209       9.99685251       8.03861446
X          2.75280044      10.87405263      12.84449095
X          7.13318616       3.08486354       4.38196928
X          4.81687216       0.48751741       0.55060275
X          1.30660903      12.28533289       1.54308884
X          6.77727462      14.23743309       4.08727002
X          4.43902569      11.58420610      10.72498430
X         11.32751593      10.96887314      14.48949086
X         10.03462776      11.16055204       6.26510780
X          3.09982551       9.85370608       1.26935145
X          3.50873499       1.67636638       9.80348299
X          5.79045363      11.47565833       8.57137327
X          8.41781887       7.00523923      13.77286612
X          0.52808303       9.43907724       1.69375727
X          6.73079060       3.42022870       6.90522243
X          1.62369303       4.07649291      13.85898906
X         10.98075716      13.04776896      11.76650743
X          1.85914088      15.14057958       5.98865701
X          4.49755770       3.04769532       4.91241222
X          1.85460139       4.91901776       8.66494929
X          5.66174315       5.37913835       4.68245628
X         10.17742551       3.15867643       4.37612370
X          0.78994375       2.33750350       2.52277113
X          6.75101959       4.76269118       1.95197771
X          4.03226163      11.12960594       6.28517311
X          2.22808473       8.05853828      11.24622836
X          0.34097089       4.49004591       1.54072882
X          3.69439393       7.54557298       1.68094693
X          0.65826795      11.07337934       3.88604863
X          1.79150042       3.88078225       3.80293483
X          8.19561234      15.15535095       7.68922184
X         -0.04081751      14.97844589       1.50694441
X          8.27186267       8.16567686       5.76709627
X          3.58087510       5.42794047       6.49176671
X          2.98132105       1.36239852      14.48285455
X          2.09012484       1.84175427       7.31462992
X          2.87418617       5.06030587      11.69862732
X          1.58123652       2.25445591      11.99996049
X          4.83030112       6.79668943      11.21990846
X          6.14168091       7.87789129       3.69303643
X          4.53123678       1.19005824      12.10262841
X          9.12410737      10.86002957       1.18460096
X          6.69694272      12.28103215       2.70916653
X          2.10806084      15.55510925      12.93073144
X          9.97988859       8.65773399      15.00281860
X          6.35100215       4.41827317      11.35432370
X          6.70331565      13.90639914       8.79039554
X          9.63035148      12.31497113       3.45608478
X          9.21782194       0.54065339      10.88929718
X          1.16158751      13.66401562       3.28461572
X          8.70261835       3.25587780      10.09584967
X          6.13385949      14.27764488       6.80395154
X          4.78709363      13.10904184      12.97832264
X          3.40287640       6.57726407      13.78783383
X          4.76994567      14.63731935       2.57227773
X          0.42104532      13.98920132      13.28056742
X          5.23949196       5.94276486       8.82494924
X          2.63457681       1.66548205       4.68742354
X          3.14654301      12.12657247       3.31315731
X          5.41982460       8.89963307      14.04156436
X         11.07258420      11.64472247       9.16913644
X          1.17153904      10.63626473      11.12056703
X          9.84435167       0.75892635       5.88009139
X         10.43428311       8.19935582       4.61048944
X          5.67966826       5.76798060      14.99214348
X          1.31275386       9.74180947       6.20053645
X          2.99310665      15.43512096       8.39150274
X          7.65673785       0.72336694      13.64532469
X          8.51134283       7.78802503       8.28009980
X          8.15374311       2.18581660       1.35717985
X          2.96904747       2.27117058       2.23827149
X          0.29012923      16.06292547       3.84427137
X          8.52460293      14.61468143      12.85628954
X          2.51376197      15.79227283       2.90446624
X          4.17623970      13.23710380       5.38723413
X          8.89651982       6.19274508       4.28390598
X          9.18649699       5.09657193      11.97126412
X          6.02299579       0.74048298       9.03858267
X          9.56743827      11.75207756      13.05979418
X          7.60816947       7.19171459       1.65120214
X          7.27797725       5.02253235       8.73530326
X          6.85708303      11.41119773      13.40833537
X          3.54003107       7.61755015       8.77354285
X          4.36751880      12.34085619       0.87769839
X          8.98064489       5.24872866       1.27824893
X          6.61932959       2.02207872      11.77323307
X          3.07514272      13.17066830       8.18395286
X         11.03657723       8.46589070       9.55943640
X          6.57555977       8.49807911       8.49506027
X          9.05359372       0.54467368       3.56899393
X          4.70060087      -0.01805777       4.63938619
X          5.52120173       3.04819552       1.54776926
X          2.08331455      13.17252985      11.52369710
X          5.73037673       3.02730132       8.92126140
X          8.49493162       1.87476045       8.06955215
X          3.33846517       5.92472464       3.97145033
X          8.52650700      12.93797680       8.09356879
X          7.49615409       3.92498671      13.75402121
X          0.77915374      14.24403793       8.24435535
X          6.93021387       9.60770881       1.19205461
X          0.57439463       4.28475391      11.13437056
X          6.75298525      13.48177730      14.93525352
X         10.13644665       3.29935498      14.31146272
X          0.48610035       3.84923796       6.45523758
X          4.98175597       1.61486984       7.21125058
X          7.46139159      15.45172395       1.29766933
X          6.91760302      10.13293481      11.12428822
X         11.24277128       3.12131423       9.22096339
X          9.66069580       9.35034902      10.74149788
X          0.34203600       0.39227491       4.01211025
X          9.27998740       4.97669154      11.41826334
X          9.53460948       5.08918884       1.29109998
X          2.19576241      16.09322614       2.59810204
X          7.21331608      14.03645023      14.94531007
X          7.45448685       3.33082651       4.00589418
X          6.42000836       1.95154396      11.26572664
X         10.80700744      13.27657233      11.24924405
X          9.66866908       9.93537401      10.65851924
X          0.44387049      14.29632710       8.74870856
X          7.78767137       5.41137422       8.61847757
X          6.09346378       8.78282078       8.68362442
X          8.46433170       1.35405224       7.97934266
X          3.66442409       5.96064625       3.67325764
X         11.10235757      13.42311402      14.18534767
X         10.65386351       3.10228455       9.26045903
X          6.15266525       2.96684533       9.09460087
X          9.89740472       1.17875149       5.56487131
X          2.59840310       9.79931241       1.22623320
X         10.14116858       2.98615327      14.63089985
X          3.44957966      12.86524666       8.02402425
X          4.58441303       1.21627686       7.09598887
X         11.15339122       4.03962882      11.60129599
X          0.73674870      13.82182352       3.48660055
X          0.20600652      10.94442510       3.87845325
X          8.80523270      12.29701107       8.02114142
X          7.76242164       7.59907058       1.96852910
X          3.65859074       7.40499614       1.11569461
X          6.29058654      15.64552999      11.52820160
X          6.48575786       9.57381633       1.24378112
X          9.95165596       5.90047911       9.51755577
X          3.02884149       2.09368654       1.67127705
X          7.85126992       2.10970113       0.94645905
X          6.63552119      13.86329983       9.40741569
X          5.40095427       3.36271425       0.90678494
X          7.49077046      15.80681700       1.90708967
X          6.61896451      14.64509495       3.89591240
X          8.99365885      12.36921323      10.72539309
X          3.12907428       7.20211149       8.31795035
X          4.41998625       1.02314628      11.62401538
X          1.98805229      10.23093683       8.27301352
X          0.93054531       1.69453192       2.73610823
X          6.13202597       9.27828364       5.99387006
X          7.32013380       3.64671956      13.40992790
X         11.32291866      11.27308520      14.82620456
X          2.84549744      14.77729479       0.78778839
X          1.47514347       9.23004688       6.37724576
X          4.49554605      13.30299816      13.27294698
X          0.93853395       3.98704871       6.49478890
X          2.89302070      15.33331575       7.90099029
X          2.08032466       2.02238026      12.22593712
X          9.02451632       2.87955912      10.26375994
X          9.32104748      12.20813348      13.09132871
X          4.83847116       0.18963174       5.03876072
X          3.52058477      11.78864806       3.57501667
X          3.88746519      11.92862092       1.06534572
X          6.68720514      10.28477660      10.56168846
X          1.62800209       6.64880779       2.20617592
X          8.30223827       8.18714549       6.38901897
X          8.01155958      10.14404515       8.09767250
X          7.03375384       1.41331899       6.65267138
X          8.75600580       7.13678429       8.44728577
X          3.89394796       5.71104101       6.69492931
X          2.37317995       1.70000352       7.78366533
X          2.73955543       5.62366750      11.74204997
X          6.23064282       0.34792537       9.50396595
X         10.74126712       5.97456964       5.14891271
X          4.62255684      13.62057245       5.14600367
X          2.01982575       8.06138773      11.68137674
X          9.13599263      12.01130763       3.45922105
X          6.63066427       4.54517159       2.45044010
X          5.32609045      11.45259589       8.80912780
X          2.19161442      13.62880209      11.60402924
X          5.79978368       5.01941339       5.10748245
X          7.91001308       0.64871584      13.13776178
X          9.46829178      11.31761939       6.37155777
X          8.35831155      15.64821116       7.33118119
X         10.59849858       8.83720199      15.06688449
X          8.64984457       5.99864735       3.63194405
X          0.91201965      10.29353008      10.69455423
X          5.82804095       5.37234312      14.61314833
X          2.24058373       5.25083709       8.37187215
X         -0.01557291       4.35644524       1.07823917
X          4.11095328      11.99209733      11.12195738
X         10.87355232       8.49221708       4.95687344
X          9.38871629      13.83181198       0.93151217
X          6.50414164      14.44967241       6.65636835
X          1.56185644       4.49814140      13.66443074
X          8.68966091       6.78725501      13.28821217
X          7.96645416       9.47269056      12.84850079
X          2.46458959       4.44790829       1.70670892
X          4.57506804      14.22603417       2.45212129
X          6.86230427      12.76395240       2.50226618
X          4.32868377       0.85401044       0.57938262
X          1.85868001      12.22330074       6.88287626
X          0.48591674       8.80195279       8.64576612
X         10.72272854       6.34361083      14.69244068
X         10.54331973      14.04766432       5.54318748
X          2.80401062       1.22963358       4.76836990
X          1.41867374       9.12499810      14.02096164
X          3.86833423       1.94698708       9.62718101
X          4.79896710      14.63391795      10.32025432
X          5.09166051       3.16358866       5.02030421
X          1.64742651      15.65573311      12.77241274
X          9.67945206      14.11353372      10.01642731
X          0.33707271      15.24190863       1.36066558
X          8.53741338      14.36694981      13.33280429
X          5.19700230      10.00676684       4.42410115
X          0.68046525      15.42967568      10.95770641
X          8.05232002       9.78327019       3.14682507
X          3.00617895       1.81934571      14.36596310
X         10.87638276       0.26853159       9.16593979
X         10.40694076       2.72815569       4.57717693
X          6.81491828       7.58914407       6.97787078
X          6.70760589      10.99764625      13.89675772
X          9.28726022       5.72564983       7.13772089
X          6.43757467       3.60467999       6.38688279
X          1.38324422      14.87505505       5.65505097
X          4.89836242       6.00417043       9.21653624
X          4.56078143       3.46639050      14.12899064
X          6.54903480       1.77080237       2.96203433
X          8.25582621       7.26642364      11.34266827
X          1.87600196       8.82372892       3.11780542
X          2.92313222      10.54732334      12.55853525
X          1.59867543       7.45265617       7.11286730
X          3.41037595       6.76014997      13.20556401
X         10.14460290      15.82258924      15.06140052
X          6.82256093       4.31844282      11.21695886
X          1.91052468      12.09449277       1.47664825
X          4.61644688       7.16180464      10.80865809
X          7.64645275      12.02605887       6.55362819
X          4.49299594       9.01762533       9.89683221
X          5.57960666       8.42446158      14.08092532
X          9.31084620       0.72249396       3.23977502
X          9.15625282       1.09023273      10.76079189
X         10.92666033      11.82594690       9.61028517
X          3.51219688      11.16551809       6.56313763
X          8.63912956       2.62452708      12.44188789
X          8.79177997      11.22459885       1.61309445
X         10.09119539       7.06191797      11.80293740
X          4.28203612       7.63108971       5.33215980
X          6.57321184       8.08261011       3.82036994
X          1.25629349       4.13293716       4.00756396
X          0.30695150       9.37214488       1.12424467
X          5.73921495      11.00425068       8.99521878
X          1.99534007       4.60880403       8.28472196
X          6.82647696      15.80138207      11.62033624
X          4.73514119      13.96191736      10.26254620
X          1.55807805       7.37516290       2.08112397
X          2.74594186      15.79532842       2.36808035
X          3.35703990       5.84480266       6.88717084
X          4.76893065      12.87513675      13.41402669
X          9.45738273       1.05954954       6.11072002
X          9.26845938      13.21724366       0.69659947
X         10.12076995       7.42871486      11.14835181
X          2.41966962      10.61763873       8.05754951
X          9.55025490      15.71807854      14.73115300
X          9.75491607      14.79427685      10.02185604
X          4.48981226      14.68110553       2.08099453
X          7.47503487       0.96250654       6.43733351
X          8.91817970       6.80514485      13.98126380
X         10.49584484      13.37881157       5.52238099
X          7.29184305      12.16207747       2.59648818
X          7.07133868       3.63597092       4.37981825
X          0.49623098      10.57021954       4.21375010
X          6.38092739       4.69931951      10.76642159
X          2.78862172       5.06340418       1.68675316
X         11.17982637       5.73806665      14.67052028
X          4.89899165      10.68022055       4.37726327
X          9.11624040       3.55735376      10.34985415
X          1.59735145      12.79272480       7.03328571
X          5.07219844       3.59153735      13.98700965
X          8.91746412      14.41338620      13.03256437
X          0.98531151      13.92836129       3.93738872
X          2.78018057      10.30360786       1.50197376
X          3.87462497       6.88227945      13.73701579
X          9.80397673       5.54157201       9.08030149
X          7.47310647      12.72366956       6.67071776
X          5.75558262       0.23776224       9.30817184
X          6.97036395       1.64169451      11.58799762
X          3.38880736       7.04597863       1.63741122
X          2.02521205       2.28045724       7.65510535
X          3.17750725      12.49397722       8.22002723
X          6.66280434       9.14229247       6.55903369
X          1.37239944       4.20701917      13.35474154
X          7.62871127       5.16358216       9.10977717
X         -0.05937103      15.04508404       0.93061808
X          3.56016783       6.32905380       3.92464384
X          9.03895573      12.78252710       8.07665346
X          7.84915781       9.50209747      13.43409974
X          2.96666004       1.44137828      13.84956740
X          0.05436110       4.17208186       1.69529836
X          4.26706994      15.99569683       5.11134606
X          9.47161370       5.96959461       6.47459752
X          8.34277297       6.16740073       4.05963278
X          6.10130138       8.30572041       4.14874304
X          6.44097877      14.26739147       3.60471020
X          1.96627430       2.30834889      11.74045076
X          9.28159328      12.53713816       3.68077629
X          3.14414766       1.47169943       4.58614622
X          2.38094384       8.35239700      11.71026160
X          8.93508602       2.56131457      13.09593315
X          8.73296271       7.70991783       5.89552713
X          6.70577616       1.09791463       2.93856121
X          0.75826487      15.98400132      10.67664652
X          4.71603259       2.54281502       4.96454547
X          6.45833078      11.69515920      13.86939208
X          8.28141945      10.36622111       7.64996669
X          4.52873102      12.17738548      10.48319418
X          4.49719412       8.31156855       5.30299356
X         11.12112077       5.35447887       5.02297134
X          2.79640684      14.27049328       0.88152743
X          1.73632704       9.11826946      13.35982769
X          3.78361798      10.72965876       6.21218395
X          9.22258461       5.72216331       1.18800537
X          9.73563623      11.01809448       5.93727183
X          1.50325060       3.92930370       3.28439330
X          6.72499946       9.19332633       1.19489487
X          7.88989135       1.69966675       1.49170630
X          0.66516112      11.27131164      14.03314178
X         10.56960721       3.42683347       4.78716182
X          1.24518618      10.12068773      11.33083648
X          4.28837507       1.53869900       7.33939710
X          3.89983309       1.15690688      12.06432465
X          8.92321974      11.28401956       0.95332455
X          4.57759862       0.61011872       0.97641638
X         11.43140881       4.38281647      11.89916512
X          0.86474960       9.05408294       1.55094097
X          2.53268536      15.41550336       8.18309664
X          6.32674823      13.75377126       0.80389914
X          5.69587744       2.89144024       9.55056133
X          5.41769493       5.56818357       9.26731869
X          1.60797603      12.75428829       1.61211570
X          6.36670026       3.13708817       6.96761219
X         10.23462131       8.19848035      15.09164581
X         10.45043326       3.63148538      14.78856870
X         11.16549516      13.59422338      11.76894282
X          0.43209132      15.95003379       4.34750301
X         11.11203398       8.87378950       9.27164499
X          3.20350754      10.79643421      13.01681415
X          8.77405451      12.57381668      11.30768794
X          0.29545100       1.92872364       2.94259059
X         10.09633211       9.88198489      10.94430690
X          1.95697238      13.44768043      11.91478205
X          7.16191011       4.99951347       2.36241846
X          2.09165945       8.63788743       3.60547366
X          6.10447885       5.85801345      14.79695719
X          5.10131734       3.24896568       1.30082133
X          8.68606839      15.17559955       7.55087535
X          3.60718578       1.54189147       9.20007162
X          7.30725374      10.25818836      10.91297189
X          3.12184515       7.68905517       1.54383391
X          8.52854792       7.35390907      10.73291500
X          4.43444943      12.90097877       5.04208288
X          9.27439320       1.03965900       3.62634331
X          8.04777528       0.29002518      13.74769713
X          1.62116997       6.78513692       7.24555752
X          7.59515729       2.33002575       1.60404581
X          0.24311804      14.70133118       8.53426801
X          4.26807566       6.88175072      11.40107223
X          5.32246241       5.57220168       5.06519284
X          6.98973799       3.79379003      14.04647447
X          3.05425380      11.72800397       3.56737185
X         10.62150677      13.70150424       5.92479938
X          7.08556422      15.68126673       1.58532460
X         10.20958025       8.25863279       5.09084358
X          1.91638044      15.54671402      12.44690461
X          6.94415924       1.01711073       6.73057098
X          6.38059829      14.34009063       9.31139286
X         10.51800556      13.34880290      11.82405589
X          8.47884251       6.52108081      13.75360148
X          1.61943609       8.65979287      13.72877861
X          9.53647139      11.84688608      13.65992216
X          4.24090734      12.86594338      12.89599925
X          1.05360799       9.35436518       6.38141407
X          2.33977459      14.33782849       1.06182405
X          6.92420900       3.26644319       3.79977903
X         11.25603573      14.06025312      14.36068414
X          4.68785473       3.02277682      14.23509981
X          8.54601799       3.29448566      10.70878303
X         10.67915422      11.53308294       9.40184948
X          1.44915527      15.07491602       6.21449899
X          3.40911747       7.04491829      13.71421819
X          2.97484440       7.48101339       8.72385331
X          5.51105512       8.69617804      13.63114432
X          3.73599347       5.91537518       6.24768883
X         10.66108466       2.75148507       9.57209032
X          5.96898329       8.31856552       9.01642243
X          0.55558754       4.30325028       6.41034672
X          8.02049311      10.40847785       3.17768320
X          0.24590765      11.26292262       4.23585034
X          3.77329741      11.21113912       5.86363040
X          4.51589567      14.19048371       9.97346231
X          1.79962297       1.83453521       7.71393449
X          6.68107139       4.76391239      11.35670052
X          8.56875749       5.74078889       4.10782967
X          0.50783586       1.83233151       2.40583644
X          9.07207250       7.58818536       8.39459029
X          2.48933692       2.46779750       2.01835613
X         10.84449282       5.81192342       4.73553980
X          5.62587833       6.04705465      14.57610442
X          9.30772210      11.41882583       1.08938910
X          2.60878757       5.19985343      11.33945950
X          9.10351747       5.37822065       1.76947777
X         10.20459473       7.56888971      11.60833212
X          9.66464768      12.18420508       3.98598518
X          1.09688384       4.40729573      14.02563809
X          5.91507726       3.54803937       9.28192750
X          9.38798510       5.39733716       6.62893314
X          3.17963665       6.13768538       3.37002994
X          4.49826192      11.92084908       1.02170719
X          1.91078264      12.86920691       6.76690280
X          6.23682673      14.44481021       4.28066489
X         11.23301955       4.48397365      11.28624834
X          0.42065814      13.78297047      13.85557456
X          4.45966420       7.91740408       5.68043419
X          0.97456165       0.25640455       3.82282549
X          8.17881953       9.87493341      12.89407816
X          6.37386588       8.89974166       9.07989620
X          5.17148621      10.37997574       3.92101839
X          8.14686703       7.18118102       1.48113098
X          7.22455612      12.35566928       6.77849530
X          4.78655695      15.62297192       5.00330009
X          3.42719669       1.62937039      14.38252774
X         10.60258224       0.90477701       9.26880474
X          0.70982366      13.34198959       3.74341007
X         11.19962592      13.84101655       9.02576139
X          5.88310243       5.60902519       5.03901590
X          5.12092742      14.34260881       2.28326284
X          2.50829496       4.75574599       1.31901917
X          0.44448312      14.68967792       1.37131170
X         10.08294039       3.02480488       4.80499181
X          7.62800176       9.79576026       3.09917579
X          8.70097532       4.79214890      11.77826699
X          0.55254213       4.04230539       1.49934378
X          6.97001913       4.30713804       2.24469521
X          6.66122620      13.95908870      15.00548607
X          2.51544179       1.30621715       4.17886162
X          1.54507279      12.50631450       1.20888103
X          8.84824220       0.75685216      10.65435264
X          8.90965173       7.65652678       8.89269832
X          9.07812792      11.60672594      13.10751037
X          7.86784219       6.88042028       2.03414591
X          2.32107183       4.77647180       8.71926285
X          8.07404769       9.71089905       7.74020244
X          2.69483497       9.62516580       1.63042726
X          4.48950622       1.50866778       6.65791956
X          4.43348267       1.47926736      11.60327000
X          4.06758244       1.58251508       9.79073974
X          5.73081389       0.79036801       9.69969537
X          7.95003434       1.76499262       8.20485414
X          6.39139493      11.30625191      13.60460101
X          8.68433403      14.00282214      12.75433223
X          2.30415100       9.92367771       8.07192219
X         10.02845732       5.27835116       9.65211764
X          9.96227345      11.51105541       5.83732281
X          6.82418945      12.31748087       2.27161521
X          3.15280388      11.64582137       2.95433386
X         10.09906399      15.83261643      14.53553314
X          6.11710498      14.75755099       6.82931593
X          6.58188893       9.58045023       0.59429663
X         10.76941483       3.45250125       9.68160221
X         10.51992055       7.87201444       5.00108142
X          4.82590390       9.52506882      10.07030082
X          3.14874271      11.24129366      12.59235237
X         10.84230946       6.02786023      14.35418165
X          4.16140646      13.29064778       4.93294806
X          7.83268849       4.89109027       8.73760052
X         10.85742602       0.74695100       8.77637864
X          6.57907145      15.39892399      11.16705409
X          3.69724439      12.89919620       8.57455783
X          4.14468118      11.93642720      10.51579962
X          6.30128602       1.48079006       2.74304549
X          2.08305395      16.15565838      12.74616518
X          6.97486883       2.36145723      11.55550435
X          5.60886312      11.70344030       9.07375535
X          0.30250313       9.03470720       1.64475696
X          0.61597493       4.07305954       5.87157834
X          1.48077489      10.30318438      10.96711244
X          8.21826011      14.92945236       7.29011246
X          8.70806181       0.72904822      11.25416875
X          4.35273029       0.15147420       0.77035861
X          6.64422133       9.41690504       6.13060105
X          8.14460691       0.99375395      13.70549776
X          5.31753817       6.25581061       9.25562478
X          2.63378486       1.79715944       2.23400944
X          0.31898160      15.70529305      10.36445345
X          6.35412682       3.74431099       6.98769969
X          8.92388799       5.46931931      11.70372432
X          9.49928370      14.37060883       9.71519512
X          1.69805312       4.32521317       3.64638989
X          5.92833261      14.56599519       6.24640240
X          2.47560974       7.61874151      11.63486790
X         11.17821705      11.14118498       9.60271275
X          1.37534972       7.01393901       1.87182849
X          1.12521041       9.36312033       5.72909044
X          4.83111518       2.92071326       4.55189641
X          0.48793280      10.76364686      14.36546000
X          8.68049946      11.92581449      11.19756645
X          6.39336006       8.36717190       3.47145146
X          5.97457454       8.98208950      13.91123915
X          1.33181105       7.34754088       7.40992336
X          2.90954919      15.97982785       8.15445281
X          6.12070738      13.69117723       9.22889609
X         10.02893928       1.11185982       6.12076607
X          2.35412496       4.99741789      11.79482862
X          9.08814472      12.72710014       8.57326687
X          4.38946417      12.04721296       0.51887111
X          7.10942115      15.18683108       1.85890585
X          7.65258837       3.40966339      14.00806866
X          1.60661826       8.94132894       3.83380828
X          8.89635901      13.74878083       0.59705912
X          8.63426970       1.69880139       8.61691658
X          1.86371250       2.69549157      12.09951880
X         10.28263392       8.46440261      14.70760221
X          2.92657679       7.86420135       8.34458890
X          4.99990615       2.81420572       1.05300071
X          1.73249042      14.68127183       6.31453219
X          2.58855425      13.11510118      11.85769249
X          8.47832898       7.72776699      10.88590213
X          7.05690478      10.57277800      11.10160747
X          8.71391950       0.82175001       3.14504987
X          9.77764154       3.24110047      14.60130768
X          8.93347859       2.93158197      12.58666854
X          2.22953565      15.42868925       2.51971886
X          9.39779311       9.98655323      11.17666451
X          0.24636393       9.20281303       9.20108292
X          7.09167687       7.40864331       7.20014692
X          4.75286184       8.85955537      10.16574090
X          4.70892507       7.23102024      11.38130606
X          7.60740967       7.83531977       6.64235424
Fe         1.56405120       3.52838270       2.06932860
Fe         4.23763580       1.40348190       5.26621980
Fe         1.25620200       3.47501410       7.83099290
Fe         5.11261350       1.79256900      10.51809230
Fe         1.55707990       4.02650620      12.14211500
Fe         3.80547310       2.07542210       0.39818230
Fe         1.92015850       8.56448890       1.93947710
Fe         4.27883290       6.33238790       5.18270520
Fe         1.69472230       8.71232570       7.65195870
Fe         4.78807340       7.57283860       9.65402110
Fe         2.13147200       9.52624070      12.21354760
Fe         4.89156120       7.28669100      14.53581250
Fe         1.43396940      13.98682930       1.86655800
Fe         4.14380980      11.65147310       4.71476700
Fe         2.08371030      14.14550640       7.44038590
Fe         4.91017340      12.82575120       9.48237740
Fe         1.05441520      14.55127120      11.89539240
Fe         5.70621910      12.72386780      14.30925020
Fe         6.52154730       3.05366960       2.61745760
Fe        10.35012050       1.47775480       4.35328580
Fe         6.44761660       2.05461500       7.73189840
Fe         9.62571390       1.78264300       9.67014460
Fe         7.70718130       3.65715040      11.95690960
Fe         8.85669300       2.35138820      14.29128050
Fe         7.12716570       8.77337940       2.48420700
Fe         9.69828380       6.72431690       5.33788590
Fe         7.45880460       8.48066300       7.30840450
Fe         9.62090360       7.97804720      10.12533680
Fe         8.31481160      10.68514120      11.91340840
Fe         9.71731580       6.96100830      15.06123610
Fe         6.37346660      13.96117900       2.31856190
Fe        10.63089170      12.15576720       4.94010910
Fe         7.44288000      13.80047850       7.41329650
Fe        10.07799350      12.93413260       9.57325870
Fe         8.26860380      15.14759180      14.54633260
Fe        10.36686970      12.16220890      14.86688770
O          1.63323720       4.11273450       3.81771080
O          0.60182410       1.93811040       2.59434070
O          2.82856600       2.12630040       2.09226100
O          4.75764120       3.03287500       4.81613650
O          0.62298570       0.09365520       3.94920860
O          2.76226370       4.72607890       1.43797600
O          0.12341100       4.32878330       1.46643550
O          2.64297550       1.44080320       4.54108370
O         10.86438140       3.14355450       9.43008610
O          2.05089670       1.84828410       7.56769660
O          4.59785980       1.47229270       7.11365350
O          5.85547160       3.13814280       9.21759530
O         10.76635320       0.60661840       8.94683860
O          2.13506080       4.91251240       8.60987390
O          0.61320130       4.08913100       6.26736810
O          3.62872730       1.70739950       9.57977590
O          1.46750270       4.31401120      13.86387460
O          1.83252660       2.24300900      11.96987580
O          4.30196100       1.14833950      11.96586440
O          4.69036520       3.41947420      13.85648430
O          9.98534050      16.03907050      14.74943670
O          2.71170140       5.25031080      11.57464150
O         11.33154690       4.29359690      11.55424280
O          2.97109890       1.51660280      14.25497670
O          1.98448440       8.89443950       3.67100400
O          1.27532220       6.89239710       2.11559860
O          3.52263050       7.43971450       1.52307830
O          4.23710620       8.09046250       5.53487870
O         11.10218460       5.75925670       4.89923210
O          2.86969940       9.93279000       1.33864260
O          0.35706220       9.28795630       1.53559190
O          3.39764830       6.06120080       3.68260810
O         11.29238990       8.72407890       9.39419750
O          1.33157690       7.05335820       7.08961940
O          3.63729090       5.63424520       6.66428670
O          4.50688300       9.26770840      10.20523130
O         10.08221090       5.59400820       9.37586430
O          2.31106080      10.30221730       8.32309590
O          1.22248210       9.49637270       6.10488300
O          3.13796480       7.55853760       8.55476070
O          1.70837150       8.88146450      13.82927410
O          2.23378030       7.92211210      11.47368950
O          4.65894750       6.97235560      11.32565170
O          5.60255160       8.81115590      13.84799650
O         11.13036330       6.08380700      14.42333670
O          3.06162830      10.91303730      12.84692560
O          1.18414790      10.42131330      10.97995300
O          3.41337170       6.76958160      13.62209210
O          0.91391180      13.65220060       3.64130870
O          1.54433030      12.28104580       1.40260060
O          4.26601670      12.02391430       0.96205210
O          4.30420320      13.35448030       5.16565450
O          0.46720430      10.92047810       3.98403110
O          2.42298220      15.77238010       2.62835540
O          0.10545040      15.10541170       1.31134870
O          3.13958640      11.85807200       3.29912040
O          0.40446810      14.32575600       8.50182870
O          1.60912880      12.53470530       6.70978720
O          3.80051030      10.97258850       6.32171700
O          4.47060710      14.36208110      10.34128000
O         11.04877400      11.46216110       9.38080280
O          2.88480990      15.57338520       8.21993230
O          1.61276510      15.03876220       5.96369480
O          3.35323900      12.86284100       8.27002110
O         11.41446950      13.71543830      14.14824980
O          2.26087390      13.26089200      11.68563830
O          4.27243390      11.80322930      10.78098470
O          2.68857410      14.41607080       0.64308070
O          0.49263550      11.12100420      14.14214450
O          1.99384230      15.75369030      12.80500560
O          0.52937560      15.85525990      10.71733180
O          4.51317930      13.10533810      13.07758420
O          7.26821910       3.33038740       4.23071160
O          6.35616800       1.30475170       3.03852790
O          7.90742790       2.08789140       1.35713720
O         10.24635130       3.21648150       4.64294560
O          4.52944040      15.92224940       4.94739310
O          6.84980230       4.75830380       2.20279060
O          5.23957700       3.11980880       1.21551880
O          9.04008710       0.70117370       3.36202780
O          7.63624650       5.09890240       8.78507570
O          7.07078210       1.05471210       6.35884790
O          9.83508620       1.00950310       5.99448610
O          8.79374870       3.28197760      10.32181940
O          5.97318250       0.49463710       9.30848890
O          9.28879820       5.60338670       6.73638230
O          6.49966260       3.61142580       6.80001410
O          8.38395970       1.69842330       8.21046300
O          7.34790800       3.73411040      13.85882980
O          6.72712980       1.98446300      11.55520590
O          8.98550220       0.67537150      10.95003710
O         10.25571700       3.35186330      14.60126250
O          4.61900330       0.46118570       0.70297350
O          9.04556340       5.09212230      11.72439460
O          6.44792000       4.64551300      11.16908080
O          9.06076400       2.60393220      12.56377840
O          6.26243780       8.05432870       3.85818250
O          7.82324780       7.19478320       1.75979870
O          9.22831110       5.29287850       1.40081050
O         10.54060370       8.27405920       4.83794240
O          5.77067620       5.39324650       4.93506020
O          7.96363730      10.04188720       3.37486550
O          6.65179860       9.55722540       0.98105690
O          8.56941580       5.98769410       4.01794180
O          6.27367950       8.62424330       8.81418970
O          6.71002950       6.99603880       6.93074550
O          8.44675560       8.04000170       5.91107110
O          9.71696990       9.81911910      10.89382610
O          5.19248140       5.87600350       9.08472360
O          8.24385270      10.06408800       7.95586010
O          6.41098100       9.49794310       6.24943530
O          8.80324630       7.56059850       8.46057270
O          8.13106690       9.41250870      13.13822890
O          8.11910810       7.43949160      10.97195830
O         10.40557050       7.31116670      11.64324210
O         10.24942420       8.65500280      14.94188690
O          5.86923130       5.75197920      14.76786770
O          8.65284540      12.32619370      10.97395230
O          6.90902030      10.28589870      10.88805900
O          8.50175690       6.76477280      13.67663110
O          6.59146160      14.42429860       4.05085640
O          6.89518910      12.26869830       2.53218230
O          8.97247360      11.07115950       1.26992800
O         10.34617920      13.78342130       5.79741600
O          5.06052110      10.27332100       4.13114840
O          7.29665120      15.55252800       1.66202510
O          4.64802570      14.46879000       2.39501090
O          9.38236520      12.32076480       3.58889610
O          6.51752800      13.94768080       9.19972630
O          7.30012640      12.26490560       6.44455730
O          9.79037700      11.15341790       6.15807010
O          9.41117320      14.54256450      10.00485690
O          5.66461580      11.35091080       8.75974040
O          8.45822860      15.27670620       7.49825610
O          6.07567930      14.58861180       6.62780300
O          8.85120880      12.68015850       8.17480800
O          6.35459650      13.75545080       0.37326840
O          8.65355110      14.35893500      12.91713840
O         10.88884560      13.26807550      11.62570720
O          9.04739630      13.59484860       0.92621710
O          6.64808630      11.31963170      13.63444350
O          7.89247100       0.68119230      13.57337590
O          6.55946840      15.48158430      11.56088200
O          9.35891770      11.81109160      13.23197810
Si         0.31956520       4.37526880       4.73303760
Si         1.92539030       1.00057290       3.12607230
Si        10.13013450       4.35789160      10.48007730
Si         3.31939340       1.04979460       8.10249590
Si        11.17930150       4.58079120      15.20464800
Si         2.80251940       1.14921640      12.65377070
Si         0.67284920       9.41384410       4.57287550
Si         2.74309290       6.13990590       2.22513950
Si        11.22224550      10.12845920      10.29114120
Si         2.58675750       6.19729040       7.77886360
Si         0.52204790       9.58752050      14.68832620
Si         3.20476800       6.71854230      12.04095430
Si         0.51097980      14.77767740       4.80147570
Si         2.95894620      11.49651480       1.72994500
Si        10.83794050      15.37725330       9.83893700
Si         2.75689540      11.56744940       7.40969080
Si        10.25930280      14.68691190       0.55165280
Si         3.47421930      12.30882700      12.11523830
Si         6.11907230       3.85807690       5.26206590
Si         7.77814190       0.78873260       2.39078010
Si         6.25712230       4.74370950       9.52394850
Si         8.58260430       0.66908560       6.92657050
Si         5.94470920       4.18218210      14.60168900
Si         7.68068300       0.65518940      11.92674410
Si         5.50600130       8.97318770       5.00887160
Si         8.10279480       5.73800950       2.53851060
Si         5.89244280      10.01359840       9.67489690
Si         8.91506670       5.91527080       8.25574230
Si         6.85215800       9.76852880      14.12632620
Si         8.97930420       6.67307630      12.16764610
Si         5.38359930      14.55701780       5.14970380
Si         8.31780410      11.51765100       2.71856450
Si         5.87945580      15.16668210      10.11543350
Si         8.53291030      11.40378750       7.13676860
Si         3.64593930      15.39069290       1.55942760
Si         9.37664120      13.12065950      12.23744850
