   937
 Wannier centres, written by Wannier90 on17Jan2025 at 13:41:46 
X          6.66878850       7.02298176       6.61833474
X          8.62821521       8.29422188       5.88254268
X          6.45108287       7.01628815       7.12242126
X          1.01592347       6.89893988       2.24669889
X          2.74248791      14.17109875       0.49136773
X          7.52076172       3.24987859       4.19486743
X          9.23461550      14.60456800       9.76812712
X          4.19833042      14.39223597      10.28713408
X          2.00951334       7.82956651      11.34111546
X          8.02397207       7.71209491      11.01120552
X         10.64318512       7.45794491      11.64337859
X          8.40265516       9.46636761      13.24984936
X         10.11466778      13.75141764       5.94872245
X          1.05882346       7.03754126       7.19436908
X          1.91147853       8.85375744      14.07900662
X          7.03024833      12.18982205       6.44562072
X          9.17498194      10.85722298       1.36949040
X         10.18487134       0.19465750      14.62349854
X          1.32073469      12.56240716       6.71659002
X          0.37595405       9.59809890       1.51902901
X         10.03818188       3.23016513       4.85829957
X          4.42207661       9.23182913      10.48413658
X          6.30232821       4.73049047      11.39545427
X         11.16770878       5.90513459       4.65651670
X         11.02269152       6.05226940      14.14235375
X          6.31931398       1.30268279       3.32036418
X          1.69194247       4.30056589      13.97838017
X          3.90108833      10.70025211       6.33418950
X          0.59615418      16.10525305      10.82620900
X          4.61029574       3.28893690       4.88205034
X          8.22659594       7.98986481       5.70148355
X          8.94341238      13.49589070       1.19001750
X          6.37080036       9.71608191       6.42013341
X          1.26256398      12.27483789       1.37584940
X         10.91164209       0.75381623       8.77324647
X          4.87019670       3.24902686      13.69549743
X          6.95417699       1.22036070       6.13590104
X          6.61968265       3.76236425       6.98626422
X          9.31180899       2.78193312      12.52026437
X          9.22341525      11.81636260      13.50066029
X          9.89725897      10.88410378       6.11847373
X          4.91340774       6.89181592      11.36361121
X          8.42483927      12.39316898      10.84392038
X          0.16579922      11.75855874       8.81668385
X          3.79149335       5.38909830       6.67277719
X          3.55355270       1.98017867       9.61157481
X          5.45864434      11.22782883       8.58878173
X          3.23897605      10.72743559      12.98455736
X          8.46106429       6.71859756      13.96551950
X          6.85710331      14.51039496       4.02591047
X          0.10724994       4.61473155       1.54592079
X          2.27970133       8.89890176       3.62249278
X          6.09159381      14.86426728       6.73273512
X          2.93468910       4.57742292       1.28861542
X          8.16868800       9.84833888       3.38977755
X          4.05162561       8.28029353       5.36179209
X          4.86195222       0.52081099       0.60762020
X          0.52427699      13.84235490      13.78702498
X          3.79628421       7.52641545       1.59049535
X          1.78504718      15.26256364       5.96918364
X          9.99013539       8.76312614      14.95705908
X          8.78097389       6.08512211       4.26570992
X          0.70702731      11.26604515      14.23919590
X          1.63375853       2.09000706      11.85234834
X          0.00949615      15.32961044       1.44051675
X          3.54257390       6.83581088      13.91492099
X          6.37842847       7.90352489       4.06996101
X          9.67631899      12.34125072       3.74883690
X          6.65371005      13.92661547       8.89621195
X          2.88246898       1.29388933      14.42782533
X          6.79710921      12.19016051       2.80561076
X          2.06007672      10.45551522       8.43310196
X          2.71489640       5.03079853      11.36808138
X          6.67827894       4.95397075       2.34689966
X          2.94648032      11.75835277       3.49269906
X          1.87746691       4.22200893       3.94316449
X          5.25059823      10.45763094       4.02956138
X          8.13207163      14.97235130       7.47983741
X          2.86730100       9.79943915       1.08965550
X          4.37025755       0.87238522      11.94407266
X          1.96211622       4.61594540       8.61460780
X          1.25341507      10.69490553      10.92889873
X          9.33877012       5.33109889       6.70625664
X          7.21914749      13.75687342      15.03939874
X          2.60582142       1.29587895       4.81006748
X          8.91815806       2.29493942      12.45295587
X          0.63118435      11.06553152       3.81512771
X         10.92861967      12.98042593      11.71508239
X          4.27122184      11.50886781      10.67137251
X          0.55573305       1.77939935       2.35833130
X          1.80645601      15.78374151      13.04129544
X          4.51736469      14.22287808       2.40293396
X          6.04548969       0.63604044       9.02338381
X          6.92056541      11.32441901      13.46876283
X         10.34572101       8.48494885       4.93852123
X          3.14390750      15.46204492       8.29892872
X          1.16827272      13.56899904       3.74369284
X          0.33595169      14.38831452       8.23182772
X          5.83288914       5.63955423       4.81661191
X          7.50819758       3.94091964      13.96247623
X          8.50673946       1.94639193       8.13016886
X          4.95437451       5.74802583       8.99834258
X          4.17810924      13.47698220       5.41368877
X          8.38889588      10.01268875       8.18534446
X          9.05561576       0.36607166      10.88338818
X          5.58548114       9.06601123      13.67357282
X          3.43593597       7.69500869       8.57962291
X          0.42289400       8.71860600       8.82927587
X          3.50206359      12.96536860       8.53304272
X          8.62297690       3.35628939      10.13322739
X          8.66954484      14.58780116      12.74034700
X         10.43359123       3.21926143      14.40137211
X          1.87585822       2.13800453       7.53370217
X          7.59523792       2.19784017       1.37062228
X          9.71324313       9.48676882      10.82078716
X          6.11952151       5.83456547      14.74997434
X          6.56357091      15.27879735      11.73087143
X          3.00517510       2.14219570       2.32267309
X         10.03195990       0.79780946       6.00271782
X          0.55486225       4.30940602      11.09535195
X          4.48744005      13.33627141      13.27038516
X          4.43745640      12.01977138       1.20635320
X          1.31988381       9.78739676       6.12776156
X         10.33649085       5.59777978       9.28975160
X          1.99051355      13.53823492      11.86265961
X          7.59730800       0.73715562      13.51569687
X          0.71552787       3.96871913       6.56971757
X          4.99409147      -0.02889178       4.72493934
X          3.74145736       6.23836248       3.94684228
X          6.62480275       9.86281990       0.95472145
X          6.42566196       8.56092340       9.05532643
X          5.07735313       3.33365933       1.31710998
X          4.93852905       1.50239592       7.23454652
X         11.06420684       2.99426662       9.58943365
X          6.88891803       2.33164278      11.53526458
X          9.32417953       0.72365268       3.57033203
X          9.06338447       7.51688571       8.28714025
X          8.04915178       7.18480849       1.40212370
X          7.58649263      15.57615346       1.77600998
X          8.74389316       4.82250579      11.77160546
X          2.51900810      15.75597527       2.88762305
X          6.70851722      10.03594297      10.94409261
X          5.69444464       2.86947821       9.49853485
X          9.01015502      12.78922118       8.50078040
X          8.98272664       5.15017196       1.33291499
X          0.33142430       0.29676308       3.95675772
X          6.60368524      14.00565740      14.96534552
X          9.03519835      12.64778770       7.92572389
X         10.92447943       3.20265826       9.12491469
X          9.54270092       9.94707366      11.15476492
X          6.38802263       9.40230410       1.05948112
X          8.38628295       1.58950859       8.50324828
X          5.91405256       8.41088782       8.84440600
X          7.26162598      15.47077715       1.28727245
X          4.45064877       7.18964067      11.53925299
X          4.45075750      11.87714535      11.03189607
X          6.13845838       3.34230278       9.34647926
X          7.26243268      10.35795810      11.14390493
X          1.12631891       4.12789065      13.96325829
X          4.81884611       2.93403675       4.52173590
X          7.81760841       4.87060924       8.78939724
X          4.22839835      12.91310455       5.03370620
X          9.56229307       5.12012908       1.32384795
X          6.07041332       7.96802033       3.62571605
X          1.76880522       8.67032441       3.82779055
X          6.99536653       1.69271861      11.47005359
X          4.69573395      13.08840958      12.82652982
X          3.51070891      12.80251301       8.01073849
X          8.04063186       7.20050361       1.98637489
X          4.39577074      12.26728529       0.64170241
X          3.36485701       7.49257819       1.24681985
X          6.48367665      11.69544199      13.79657710
X          0.17110742       9.11720022       1.68035037
X          8.45659651       7.77927541       8.21543981
X          5.82848046       0.69968601       9.58224267
X          2.93195277       2.10353311       1.73916359
X          3.95535094      11.23110852       5.91196391
X          2.49471390       8.02711659      11.32778484
X          4.89781864       2.78799438       0.99502137
X          0.65009647       3.87774592       5.97214029
X          2.97575361       5.34479861      11.80427698
X          4.54324670       1.42328237       6.65749847
X          4.40938759       1.32414517      12.18684588
X          0.68048889      14.20346645       8.57561302
X          7.31491994       3.74221806      13.45801859
X          7.98542033       0.41645807      13.74907421
X         10.22778239       3.26733085       4.34007342
X          2.36794913       1.77863990       7.40490159
X          1.73898141      12.07620378       1.68532344
X         10.27423331       3.71877383      14.55033185
X          5.91201671       5.18991652       5.25355644
X          8.83044436      11.28431269       1.61075334
X          2.80618948       1.76706797      14.16373949
X          6.85380716       4.73141533       1.89407373
X          1.43304237       3.91350437       4.04415777
X          4.62604020      14.30556031      10.61376952
X          0.42828150      14.91318995       1.39058923
X          6.49281754       3.15539833       6.92577479
X          2.98187747      14.53860391       0.92330980
X          2.63874419      13.25992667      11.84868486
X          8.95036654       5.48412293      11.72271140
X          0.15078989       5.84187638       4.69996900
X          9.35185847      14.42768907      10.30915272
X          0.92222787      10.38984598      11.14834667
X          8.07876213       2.21940303       1.56108646
X          5.52521407       8.49991445      13.81259462
X          4.53200151       0.14938596       5.06651878
X          5.82144152      14.40328130       6.64567505
X          8.65018446       3.19793633      10.67930502
X         11.38494895      13.78735512      13.81835682
X          6.95277470       6.81406399       7.03417113
X          6.79769141      12.14249387       2.27438008
X          1.62605036       6.81621581       7.31363244
X          8.96249991       5.69191086       6.86908080
X          0.23092864       9.20523534       9.20482458
X          0.92049020       0.21987611       3.70940958
X          0.89321837       9.46010796       5.94433981
X          8.60114931      11.83352951      11.26347977
X          8.14708238       8.12278871       6.40977085
X          1.48504798       8.67884008      13.76980688
X         10.43599105      14.07366390       5.53766304
X          9.33629500      12.31008732       3.22992449
X          4.31578267       8.13149097       5.80988985
X          8.86956588       6.72464765      13.56307840
X         11.04851658       4.06248774      11.42277345
X          7.01790081       3.16886553       4.46395838
X          0.20094868       1.94457402       2.96712720
X          8.51185308      14.37327099      13.26995922
X          6.63367922      13.86444170       9.44801516
X          8.89235178       1.00976074       3.28616386
X          9.64631719      11.75011416      13.20538609
X          7.49911117       1.02757409       6.41848346
X          4.44342163       3.54637845      13.79814913
X          5.45633468       5.88865600       8.90294485
X         10.41864635       7.85181221       4.97582307
X         10.59472958       0.31850027       8.87422152
X          7.81975550       9.54951782      13.41406631
X          9.05101146       0.96538664      10.61979540
X         10.92285382      11.20266689       9.23291609
X          1.36670823       6.89785966       1.81593942
X          2.96417174      11.22719450      12.95378536
X          7.48103543      12.38154936       6.23167734
X         11.09369398       5.69665420      14.64391244
X          2.29126886      15.68203927      12.84571340
X          7.81581331      10.20222466       3.57446457
X          3.32726631       5.65351614       6.52674548
X          3.11208925       7.20450201       8.31772773
X          6.18785253       1.20427907       2.80428804
X          0.57781910      13.36836891       3.79714106
X          4.32629713       0.78552101       0.66257573
X          8.86584068      13.74511984       0.68476012
X          3.24508902       7.00947893      13.43847963
X          3.11494880      12.14279176       3.15317430
X          6.28451274       4.42886058      10.88435040
X          5.21859041      10.04749224       4.47210590
X          1.72332574       2.64347147      12.16488418
X         10.81731324      13.32929789      11.27879746
X         11.04828981       3.93466466       1.94595124
X          8.01335533      10.34520639       7.94071389
X          5.59344867       5.96947834      14.86660628
X          3.16008431       6.32263740       3.48735424
X          1.96077543       5.22431179       8.47657141
X          5.07571426      14.42987848       2.34530962
X          2.94648325      15.93576037       8.02673109
X          5.92677092      11.46043577       8.68588655
X          9.78772347       1.22993989       6.24687374
X          2.74125371      15.80623296       2.36698721
X         10.03560109      11.51139450       5.80691796
X          7.61143694       5.20319644       9.09259042
X          2.52977997       1.71678730       4.45687009
X         10.37871853       3.35591448      14.92841894
X          1.24326460      15.09783625       5.92472660
X          2.70580689      10.33341254       1.36130081
X          6.55269386       9.49845615       5.93000669
X          9.96070090       8.67018004       0.50594372
X          3.72158722       1.61163758       9.17115672
X          8.65935429       5.71643937       3.75216531
X          0.45162884      10.75604591      14.38439831
X          9.94514360       5.85457423       9.49925257
X          9.63595750      15.74043382      14.69083737
X          6.44374124      14.19056851       4.28730392
X          0.66707187      15.73798658      10.41064101
X          0.32128358      10.57222038       3.90972204
X          8.37555843      15.56114773       7.20405408
X          4.90670102       9.44261088      10.14265624
X         10.09862251       7.31659971      11.91950990
X          1.81312160      12.25210605       6.96993233
X          2.59970160       5.05932346       1.34826342
X          2.53238676       1.22031571       4.19698344
X          8.04258859       7.21347603      10.78398043
X          6.29490084      14.70278690       4.15097345
X          3.46743282       5.88120907       3.36619035
X          3.53501402       5.83681100       7.01165462
X          1.59345341      14.82197151       5.64105660
X          0.46768720      10.99106041      13.86715999
X          6.27210358      15.62767514      11.48291334
X          2.13648218       9.86800497       8.05698947
X          1.44474049       9.18331429      13.98871654
X          9.04492271       0.60244397       3.02552381
X          3.15675594      11.62012288       2.95155075
X          4.37040565       9.36463707       9.94856297
X         11.25741117      14.04338418      14.39092404
X          6.95188262      10.21832218      10.51980157
X          3.67925568       6.77131549      13.31225993
X          8.38608995       6.56885446      13.37924823
X          0.59573927       4.09906778       1.58639476
X          2.04633305       1.97756030      12.24111326
X          2.59951394      14.71078468       0.56495081
X          1.01689962      10.28976564      10.61357276
X          6.59643914       4.86186451      10.91045969
X          8.07297916      10.36901529       3.09967514
X          8.00191511       9.18964462      12.99285228
X          8.42779428      15.51300086       7.73243253
X          6.72343628      11.04319619      13.93073839
X          3.22335601      11.08937506      12.50739787
X          8.59039165       0.70444355      11.09309073
X          6.07874403       9.28805065       6.10102743
X          9.34500051      12.19368023      13.03777159
X          5.38539901       5.59277453       9.36721796
X          7.30519181      12.16343508       2.55465515
X         10.99335018       5.32937130       4.84749612
X          3.45277109       1.44199829       9.63321409
X          2.23241437      12.92253675      11.77458015
X          2.63356136       5.63774961      11.51308201
X          6.96267430       3.82847742      14.01866664
X          9.44285170       5.71574789       7.07847429
X          9.11669646       3.56070642      10.36975187
X          8.52588185       1.40849954       7.93043106
X          4.94069543      10.01905135       3.99522271
X          2.03862859      16.15505424      12.66356672
X          6.75665879       1.17206643       2.92989963
X          9.39922490      11.19464574       6.13295115
X          8.73819004      11.00207683       1.11056164
X          9.78727412      14.77193146      10.00055753
X         11.22441361       4.54902882      11.30500241
X         -0.14872629      14.85913817       1.28966248
X          3.78082846      11.18566568       6.65095202
X          7.81870663       5.37808620       8.58693032
X          4.54916298      14.69593523       2.59747479
X          9.45605873       0.84479895       6.04888117
X          7.98184587       0.63224368      13.15404297
X         11.10547716      11.26169912       9.74083076
X          3.05427551       1.36493819      13.85383673
X          5.12933709       3.10852071       5.00168950
X          9.81802421       5.53028796       9.07040227
X         10.50896076      13.35330392      11.81736155
X          7.57788252      11.99322144       6.65472564
X          3.01155432       7.44220781       8.78619978
X          8.29011061       7.25747168      11.33826751
X          3.89136147      12.07006992       1.10449012
X          4.21055004       7.61054575       5.41538779
X          2.17035292       8.39443681      11.78033066
X         10.60068581       3.41542831       4.78793022
X         11.18265624       8.91691564       9.18865002
X          7.20256854      15.92123451       1.76960375
X          4.76036072      14.63494422      10.18039510
X          9.20196995      11.91819846       3.56491730
X         10.51405161       8.78297227      14.72032611
X          5.72703104      11.03255495       9.05818947
X         10.12170116       9.90465238      10.89413243
X          0.16113706      15.80413577      10.55693960
X          6.97072892       0.80164603       6.51230021
X          2.23258136      15.48032350       2.51034106
X          2.70235884      15.70457051       8.45212606
X          5.99410881       8.86000081      13.92830288
X          3.40163195       7.03865913       1.65156277
X          9.38966374      13.84642854       0.92439839
X          1.81379191      12.22908352       1.17182426
X          7.23141752       4.90230743       2.32514497
X          0.33777571       9.22500471       1.11338860
X          4.41435542       0.12395818       0.60923548
X          3.87448840       1.17511439      12.02098810
X         10.64679374       8.31022329       4.54368287
X          4.31393253      13.58958315       4.91205273
X          4.41712587       1.71722167       7.19474050
X          7.13651335       3.68108405       4.33596899
X          0.30384527       4.17512976       6.20163042
X          3.12034565      10.00278438       1.53366104
X          5.87305694       5.41433812      14.96554663
X          7.89574669       1.69587187       1.50650601
X          8.74977545      12.58741267      11.30166821
X          7.71907198       6.81299202       1.86382440
X          6.39705674      14.34092733       9.33044179
X          0.31665005      14.69741582       8.70821753
X          6.18288627       9.03536779       8.92056283
X          6.06948507      14.59809933       6.19786882
X         10.69383604      13.79702408       5.91991079
X          6.63097465       3.61715245       6.41080021
X          3.16653508      12.49044506       8.24596257
X          2.36831598       4.98347280       8.21866834
X          6.68076218       1.88156097      11.84557911
X          2.54900412      10.23522022       8.45886816
X          0.62981461      10.74716876       4.31321942
X          8.52917060       6.20941544       3.72293179
X          1.75210143       9.21949605       3.77011563
X          4.98241531       3.67275713      14.06649304
X          1.33626042       4.41643020       3.90618268
X          4.17651375      12.89455331      12.93780036
X         10.96611588       0.39883798       9.24491571
X          1.96220104       1.56761353       7.63821654
X         10.07375162      15.87559837      15.08909137
X          8.70428835      12.31585981       8.13082885
X          1.62944446       6.67819925       2.26377414
X          6.72366910       9.46539905       0.58090165
X          1.44608310       7.06879446       6.80882111
X          5.76101632       5.02804336       4.76507142
X         11.33964404       6.25155844      14.55457473
X          6.24341423       0.29483585       9.47462916
X          5.39341848       3.32811323       0.87826487
X          3.94026884      11.94616748      10.95475059
X          8.70815038       7.15203455       8.49311523
X          2.89138868       4.90069983       1.76814397
X          4.39949157      15.69677580       4.76725964
X          4.35702975       6.69268578      11.33953241
X          1.20292782       4.68883057      13.91807277
X          6.80212092      15.80909959      11.65102303
X          6.07346496       8.36481498       4.09579261
X          0.82384035      14.01667452       3.85280582
X          0.78071885       0.09528753       4.23051688
X          9.21910686       5.70328923       1.11575690
X          9.23875746       5.08065829      11.94536994
X          8.47728742      10.28185405       7.66588652
X         10.69613785       3.46303801       9.65575433
X          9.00822707      14.18666362      12.91398245
X          1.32470824       9.21931269       6.48693472
X          5.65867084       3.42053170       9.14299579
X          1.80935439      12.52787520       6.46484520
X          2.34477990       5.06019381       8.77436990
X          6.98445429       7.56333566       7.06631923
X          8.49638780       7.06861134      13.52769570
X          2.49432922       2.53349031       2.10721979
X         10.89021645       8.40146915       5.01788219
X          9.67041120       9.95934517      10.63180908
X          6.42826046      13.30005255      14.81719859
X         10.32709829       6.98642326      11.55238051
X          0.06127323      15.15977770       0.91471526
X          9.11970315      12.44574795       3.68244758
X          1.87438963       9.09248195      13.37862228
X          8.96943650       2.52849517      13.28490453
X          3.10680481       7.72231306       1.74164485
X          2.98731351      13.17945956       8.06443700
X          8.26325207       5.92201084       4.03455661
X          5.27362389       5.52413434       5.04385101
X          8.73197253       0.54887191       3.43601779
X          4.48522155      14.65891849       2.05899830
X          0.92217611       1.72716331       2.79571902
X         11.11685180      13.32891052      14.30010908
X          5.76628557       0.20275724       9.30013575
X          3.25533645       6.50455740      13.50594498
X         10.41710144       0.91615796       9.21559130
X          9.13425587       5.43418229       1.74960625
X         10.02482365       5.27745944       9.64452773
X         11.17217405      13.90181856       9.15827943
X          2.33477400       1.85300085       7.95031165
X         10.26094977      15.82408350      14.60024838
X          9.10649104       0.78999874      11.18004407
X          0.76967114       4.35354346       6.12879001
X         10.90192931       8.50324176       9.58753544
X          2.53418025       9.56831964       1.60538419
X          6.84764123      12.77353649       2.48013360
X          6.45131689       1.88960234       2.88363678
X          9.41734109       5.91303666       6.40982501
X          4.57042399       0.34926091       1.06373362
X          2.55459118       1.82161617       2.23811991
X          6.76221054       9.07916642       6.59094714
X          7.43044599       3.43200628      13.97008650
X          4.46154128       1.38349605      11.49320555
X          5.50724175       8.90968586      14.19010496
X          2.34716375       4.39852193       1.64928931
X          1.62372238      12.85130748       1.58661029
X          8.10693289       1.07101700      13.68969038
X          4.65999078       8.60686874       9.99533446
X          4.70070381      10.63096888       4.35212016
X          1.51449219       7.70553084       7.32354775
X          8.04042986       9.67199767       7.71807576
X          7.35609961      12.77111151       6.82513586
X          8.50892262      14.05961187      12.74933655
X          0.34635449      15.84586485       4.04697377
X          1.49306657       4.21463426      13.21056013
X          8.75811813       7.61203583      10.67360026
X          5.78191015       5.53980695      14.46049776
X          6.70066615      10.53518854      10.84736453
X          3.49923667       1.73525936      14.49681620
X          6.08699164      13.72206635       9.23600959
X          6.60677578       8.34009751       3.49805340
X          1.82741716      13.13703547       7.00128229
X          9.77001389      11.29982618       6.49829063
X          6.34084072      13.80900672       0.99975504
X          9.90460426       1.22054258       5.49884455
X          3.89584298       5.95684149       6.22737386
X          0.93757943       9.04478562       1.66262774
X          6.17843290       3.68218290       6.68518094
X          4.56661353       2.54673060       5.03318587
X          7.56668001       7.51205533       1.85240080
X          2.28238056      13.30812823      11.40898282
X          8.46235162      12.99459993       7.98321919
X          9.09704438      11.53025807      12.89271278
X          0.08731096      11.31868089       4.17797054
X          4.58790784       3.02530356      14.30820965
X          6.78992150       4.25596783       2.39066239
X          2.78238356       7.83296667       8.32815097
X         10.05328944       7.53796901      11.13821021
X          1.69409362      14.72065776       6.36867439
X          7.10125930      15.31461464       1.85770474
X          1.53603529       7.48317451       2.10724969
X          4.62925638       7.19662631      10.77713175
X         10.24245204       8.18363401      14.94989746
X         11.26190028      13.62454389      11.84563200
X          1.60398235       4.04733751       3.48364804
X          4.20584928      11.71983505       0.86159917
X          9.73599385      13.84515286       9.79018858
X         10.42150865       2.72683920       9.46690166
X          4.20437363       1.69317301       9.91736106
X         11.30919101       4.34262878      11.85875301
X          6.53798289       8.58211182       8.40265536
X          4.37246367       1.20191433       7.30313034
X          2.69900581      10.57396984      12.64757263
X          1.37087528       9.34430053       5.72403869
X          3.56196423      11.79476165       3.62400685
X          6.96315768       3.24831021       3.69910014
X          5.41739069      11.76411676       9.04443365
X          7.92352815       1.72850004       8.05759340
X          9.25280710       4.98998799      11.39941654
X          4.66959457      13.38616383       5.22959558
X          4.61092171       8.19468866       5.33363878
X          8.14055276       9.93925679      12.67738050
X          8.05318977       2.10184231       0.89630025
X          0.94576759      13.72593238       3.18075646
X         10.53414715       6.09694171       5.11686750
X          1.47665418      10.15183574      11.17392495
X         11.19365456      11.25949929      14.72303538
X          8.70447524      15.15629383       7.44771337
X          4.42130333      12.15441662      10.40136203
X          6.43369832      11.13849710      13.49605756
X          8.51317470       3.02681667      12.36772337
X          2.07873675       2.36251162      11.80837789
X          3.43777948      11.01168753       6.28056483
X          9.26891389      11.45149897       0.93351379
X          6.01490928       2.87920330       8.81323305
X         10.37814161       2.56202143       4.59360594
X         10.45840375       6.48927728      14.75227615
X          2.45752486      -0.01820239       2.54106384
X          8.91235302       7.70300902       8.86800150
X          2.42623032      10.59559806       8.01478912
X          4.84125873      12.84905271      13.44804575
X          6.62698688      15.39902870      11.18864601
X          2.22776474      14.25102813       1.11992996
X          4.75128354      15.65859093       5.19126378
X          0.62749676      15.43441302      11.06647941
X          3.27353602       5.93178126       3.94466842
X          9.29390134      13.12653092       0.65375500
X          5.11730779       6.31767978       9.30484683
X         10.71719587      11.84543109       9.46627036
X          4.66231958      13.82956485      10.03302548
X          6.44974378      14.23286407       3.46661363
X          6.53216354      14.29846226       6.80786301
X          1.88286164       8.75377393       2.84601177
X          2.40562528       7.61956418      11.72367377
X          6.88503011       4.30423152      11.37311544
X          8.74628356       7.65156035       5.90625014
X          7.59590023       9.67349439       3.03234142
X          0.11842456       4.39289772       1.01934970
X          9.00457343      12.35343948      10.80403690
X          7.28312496       5.01913342       8.72384078
X          2.63061314      15.23774167       7.95075675
X          1.71855399      15.42162417      12.44464001
X          9.79041798       3.12449481      14.52579184
X          2.29790683       4.98352526      11.85977383
X          5.52892071       2.98299711       1.48021830
X          6.92704368       9.37538937       1.33503931
X          6.29785357       1.92686015      11.27540545
X         10.45752037      13.28188007       5.48205111
X          3.20561115       1.44467124       4.62520575
X          9.09349725       2.75831546      10.12464731
X          6.83022612       1.53391745       7.00883978
X          0.80666960       2.40977924       2.49717508
X          6.49739769       3.05614512       2.62352091
X          8.87366054       2.33223511      14.29174515
X          1.46856192      13.98654758       1.88252671
X          9.62358249       7.94974801      10.12260027
X          9.75866159       6.97565903      15.08882769
X          5.10090449       1.83053249      10.53449659
X         10.67099239      12.14243682       4.96561153
X          7.46121748      13.80599416       7.38650477
X          7.13017974       8.77397527       2.48234428
X         10.37163719      12.18045142      14.86701252
X         10.38808236       1.47671836       4.36686253
X          4.23412296       1.40258415       5.27314083
X          2.09342779      14.15187619       7.44177853
X          4.93037659       7.28516079      14.54296002
X          9.71547581       6.74067734       5.37359746
X          4.14856452      11.65247476       4.71352449
X          6.35386440      13.94458923       2.32374622
X          3.81946411       2.06240048       0.38184855
X          9.70037833       6.70591150       5.32863833
X          1.57977255       4.02069101      12.13628335
X          2.12797113       9.52646380      12.21499306
X          4.89610538      12.82958088       9.48566602
X          8.28974247      10.70501894      11.93185772
X          4.27973539       6.32417584       5.18383741
X          2.11968936       9.52934110      12.22358389
X          1.02504237      14.55826142      11.91335095
X          4.79087795       7.56524080       9.65447055
X          2.07157252      14.14231200       7.43469141
X          3.80540915       2.06985474       0.39747481
X          1.23540634       3.48122222       7.84090657
X          1.69196142       8.71408774       7.62523442
X          9.71952941       6.95330196      15.04982235
X          1.68962537       8.69972884       7.66046514
X          8.85330549       2.34518394      14.29117613
X          8.25905552      15.14678884      14.53630094
X          1.41827918      13.97924349       1.86996330
X          8.26320582      15.14919242      14.55014827
X          4.90995909      12.81599559       9.48407222
X          5.71833219      12.71654071      14.30204225
X          7.42362391      13.79231207       7.43472951
X          9.56819136       1.78266423       9.63809961
X          1.04813768      14.53988876      11.88645754
X          4.77842912       7.59153666       9.63376746
X          1.54409461       4.02744874      12.16023241
X          8.31275241      10.68322968      11.91511929
X          6.51424700       3.05041854       2.61087589
X          5.11680583       1.77966209      10.51419751
X          6.45467485       2.06187785       7.73249467
X          1.54349816       4.04142358      12.17559132
X          6.44375699       2.05329568       7.73323562
X          1.27707889       3.48928021       7.83246487
X         10.62155334      12.15574116       4.93928862
X          8.27040715      15.14191189      14.54366539
X          4.88547999       7.29230996      14.54643639
X          7.10440142       8.77845683       2.48724907
X          6.37072937      13.95738478       2.31371213
X         10.34570931      12.13974167      14.84318853
X         10.35297838       1.48640234       4.34503691
X         10.06522632      12.93840527       9.56213954
X          9.63225263       1.77523137       9.66876483
X          5.11257014       1.79251917      10.51417352
X          6.52216973       3.05630940       2.61779083
X          9.60362185       7.99555710      10.10440747
X          1.57446725       3.54339709       2.06990488
X          4.21553481       1.40593475       5.26992897
X          7.46035282       8.47742754       7.30755641
X          2.15785194       9.52276902      12.22465721
X         10.62059356      12.15385869       4.92963725
X         10.08106689      12.93288327       9.56793950
X          7.70692907       3.65999437      11.96531424
X          1.91882510       8.57023806       1.93828398
X          4.16522239      11.64184303       4.71194001
X          5.71213031      12.70543980      14.31291007
X          4.30996094       6.31517636       5.19003468
X          4.24197698       1.39906047       5.28099092
X          4.81431475       7.33781574      14.61241310
X          1.26337733       3.49050104       7.82925977
X          7.44152927      13.79997060       7.41253779
X          1.43184656      13.98655800       1.87452611
X         10.37383328      12.15961473      14.86013831
X          3.77456029       2.10847307       0.42063808
X          2.08314972      14.15107267       7.43980125
X          9.62300429       7.97880935      10.12249512
X          7.14106525       8.78693792       2.48746712
X          8.85400624       2.35636992      14.27568506
X          9.70602621       6.95789170      15.06274932
X          4.15094218      11.66930133       4.71517323
X          1.05895461      14.55431827      11.89372337
X          7.70346429       3.65459869      11.96351544
X          7.46541593       8.48997137       7.30442588
X          1.55810321       3.54891532       2.08049230
X         10.34149326       1.48367188       4.35289544
X          1.91262684       8.56538135       1.94728786
X          4.24317850       6.35984218       5.15023822
X          4.77139790       7.57508905       9.65585227
X          5.73570824      12.75593050      14.35545007
X          9.70106738       6.72051072       5.33056658
X          6.40488228      13.97058016       2.30540279
X          6.44305571       2.05513530       7.74301923
X          8.32343990      10.68336534      11.90811365
X          1.69065503       8.71559847       7.65221577
X          1.06634192      14.55390492      11.90024945
X          1.28885140       3.44244234       7.85699841
X          4.89156205      12.84955685       9.45334553
X          1.42884705      13.97959719       1.85992408
X          8.84648300       2.35727722      14.29534069
X          7.44277186      13.80497681       7.41303138
X          9.61414566       1.79497523       9.66200855
X          5.69560721      12.73143272      14.29230008
X          2.12467934       9.52665167      12.20523501
X          4.27753128       6.34510579       5.19219721
X          8.31915309      10.68791294      11.90829773
X          7.71385315       3.61637880      11.90436946
X          4.87394736       7.28658982      14.52876321
X          8.27788924      15.15679151      14.55209150
X          4.26515964       1.40374907       5.25380452
X          2.07261140      14.13060647       7.45317307
X          1.53658294       4.02720965      12.13179481
X         10.63154632      12.15851344       4.94212830
X          9.62801838       7.97725854      10.12200908
X          7.14119727       8.75851127       2.47561022
X         10.33863415       1.47170902       4.35262144
X         10.07631939      12.92769239       9.57642878
X          6.37280821      13.96745752       2.32866067
X          9.70553722       6.97418169      15.06692320
X          1.55226384       3.52638055       2.07249712
X         10.35453583      12.15946052      14.86522809
X          4.91462882      12.81985145       9.47473533
X          7.70461893       3.65588034      11.95280767
X          6.44310122       2.03838468       7.72806924
X          3.80537504       2.07634838       0.40035698
X          4.12150436      11.64538257       4.71955158
X          1.70296031       8.72081351       7.65874351
X          1.91910056       8.57097153       1.94804242
X          1.20336574       3.44705114       7.84534854
X          5.11611686       1.79207977      10.51838584
X          7.45797714       8.48132467       7.30720921
X         10.06795837      12.93524303       9.59641706
X          4.89084536       7.27814843      14.54852636
X          9.62191126       1.77236717       9.66606989
X          4.79546757       7.56032508       9.64654880
X          1.56377605       3.51024237       2.02756007
X          6.53207308       3.05091357       2.61297505
X          9.68585207       6.73153562       5.33236266
X          7.98325262      14.89543416      14.60592370
Fe         1.56405120       3.52838270       2.06932860
Fe         4.23763580       1.40348190       5.26621980
Fe         1.25620200       3.47501410       7.83099290
Fe         5.11261350       1.79256900      10.51809230
Fe         1.55707990       4.02650620      12.14211500
Fe         3.80547310       2.07542210       0.39818230
Fe         1.92015850       8.56448890       1.93947710
Fe         4.27883290       6.33238790       5.18270520
Fe         1.69472230       8.71232570       7.65195870
Fe         4.78807340       7.57283860       9.65402110
Fe         2.13147200       9.52624070      12.21354760
Fe         4.89156120       7.28669100      14.53581250
Fe         1.43396940      13.98682930       1.86655800
Fe         4.14380980      11.65147310       4.71476700
Fe         2.08371030      14.14550640       7.44038590
Fe         4.91017340      12.82575120       9.48237740
Fe         1.05441520      14.55127120      11.89539240
Fe         5.70621910      12.72386780      14.30925020
Fe         6.52154730       3.05366960       2.61745760
Fe        10.35012050       1.47775480       4.35328580
Fe         6.44761660       2.05461500       7.73189840
Fe         9.62571390       1.78264300       9.67014460
Fe         7.70718130       3.65715040      11.95690960
Fe         8.85669300       2.35138820      14.29128050
Fe         7.12716570       8.77337940       2.48420700
Fe         9.69828380       6.72431690       5.33788590
Fe         7.45880460       8.48066300       7.30840450
Fe         9.62090360       7.97804720      10.12533680
Fe         8.31481160      10.68514120      11.91340840
Fe         9.71731580       6.96100830      15.06123610
Fe         6.37346660      13.96117900       2.31856190
Fe        10.63089170      12.15576720       4.94010910
Fe         7.44288000      13.80047850       7.41329650
Fe        10.07799350      12.93413260       9.57325870
Fe         8.26860380      15.14759180      14.54633260
Fe        10.36686970      12.16220890      14.86688770
O          1.63323720       4.11273450       3.81771080
O          0.60182410       1.93811040       2.59434070
O          2.82856600       2.12630040       2.09226100
O          4.75764120       3.03287500       4.81613650
O          0.62298570       0.09365520       3.94920860
O          2.76226370       4.72607890       1.43797600
O          0.12341100       4.32878330       1.46643550
O          2.64297550       1.44080320       4.54108370
O         10.86438140       3.14355450       9.43008610
O          2.05089670       1.84828410       7.56769660
O          4.59785980       1.47229270       7.11365350
O          5.85547160       3.13814280       9.21759530
O         10.76635320       0.60661840       8.94683860
O          2.13506080       4.91251240       8.60987390
O          0.61320130       4.08913100       6.26736810
O          3.62872730       1.70739950       9.57977590
O          1.46750270       4.31401120      13.86387460
O          1.83252660       2.24300900      11.96987580
O          4.30196100       1.14833950      11.96586440
O          4.69036520       3.41947420      13.85648430
O          9.98534050      16.03907050      14.74943670
O          2.71170140       5.25031080      11.57464150
O         11.33154690       4.29359690      11.55424280
O          2.97109890       1.51660280      14.25497670
O          1.98448440       8.89443950       3.67100400
O          1.27532220       6.89239710       2.11559860
O          3.52263050       7.43971450       1.52307830
O          4.23710620       8.09046250       5.53487870
O         11.10218460       5.75925670       4.89923210
O          2.86969940       9.93279000       1.33864260
O          0.35706220       9.28795630       1.53559190
O          3.39764830       6.06120080       3.68260810
O         11.29238990       8.72407890       9.39419750
O          1.33157690       7.05335820       7.08961940
O          3.63729090       5.63424520       6.66428670
O          4.50688300       9.26770840      10.20523130
O         10.08221090       5.59400820       9.37586430
O          2.31106080      10.30221730       8.32309590
O          1.22248210       9.49637270       6.10488300
O          3.13796480       7.55853760       8.55476070
O          1.70837150       8.88146450      13.82927410
O          2.23378030       7.92211210      11.47368950
O          4.65894750       6.97235560      11.32565170
O          5.60255160       8.81115590      13.84799650
O         11.13036330       6.08380700      14.42333670
O          3.06162830      10.91303730      12.84692560
O          1.18414790      10.42131330      10.97995300
O          3.41337170       6.76958160      13.62209210
O          0.91391180      13.65220060       3.64130870
O          1.54433030      12.28104580       1.40260060
O          4.26601670      12.02391430       0.96205210
O          4.30420320      13.35448030       5.16565450
O          0.46720430      10.92047810       3.98403110
O          2.42298220      15.77238010       2.62835540
O          0.10545040      15.10541170       1.31134870
O          3.13958640      11.85807200       3.29912040
O          0.40446810      14.32575600       8.50182870
O          1.60912880      12.53470530       6.70978720
O          3.80051030      10.97258850       6.32171700
O          4.47060710      14.36208110      10.34128000
O         11.04877400      11.46216110       9.38080280
O          2.88480990      15.57338520       8.21993230
O          1.61276510      15.03876220       5.96369480
O          3.35323900      12.86284100       8.27002110
O         11.41446950      13.71543830      14.14824980
O          2.26087390      13.26089200      11.68563830
O          4.27243390      11.80322930      10.78098470
O          2.68857410      14.41607080       0.64308070
O          0.49263550      11.12100420      14.14214450
O          1.99384230      15.75369030      12.80500560
O          0.52937560      15.85525990      10.71733180
O          4.51317930      13.10533810      13.07758420
O          7.26821910       3.33038740       4.23071160
O          6.35616800       1.30475170       3.03852790
O          7.90742790       2.08789140       1.35713720
O         10.24635130       3.21648150       4.64294560
O          4.52944040      15.92224940       4.94739310
O          6.84980230       4.75830380       2.20279060
O          5.23957700       3.11980880       1.21551880
O          9.04008710       0.70117370       3.36202780
O          7.63624650       5.09890240       8.78507570
O          7.07078210       1.05471210       6.35884790
O          9.83508620       1.00950310       5.99448610
O          8.79374870       3.28197760      10.32181940
O          5.97318250       0.49463710       9.30848890
O          9.28879820       5.60338670       6.73638230
O          6.49966260       3.61142580       6.80001410
O          8.38395970       1.69842330       8.21046300
O          7.34790800       3.73411040      13.85882980
O          6.72712980       1.98446300      11.55520590
O          8.98550220       0.67537150      10.95003710
O         10.25571700       3.35186330      14.60126250
O          4.61900330       0.46118570       0.70297350
O          9.04556340       5.09212230      11.72439460
O          6.44792000       4.64551300      11.16908080
O          9.06076400       2.60393220      12.56377840
O          6.26243780       8.05432870       3.85818250
O          7.82324780       7.19478320       1.75979870
O          9.22831110       5.29287850       1.40081050
O         10.54060370       8.27405920       4.83794240
O          5.77067620       5.39324650       4.93506020
O          7.96363730      10.04188720       3.37486550
O          6.65179860       9.55722540       0.98105690
O          8.56941580       5.98769410       4.01794180
O          6.27367950       8.62424330       8.81418970
O          6.71002950       6.99603880       6.93074550
O          8.44675560       8.04000170       5.91107110
O          9.71696990       9.81911910      10.89382610
O          5.19248140       5.87600350       9.08472360
O          8.24385270      10.06408800       7.95586010
O          6.41098100       9.49794310       6.24943530
O          8.80324630       7.56059850       8.46057270
O          8.13106690       9.41250870      13.13822890
O          8.11910810       7.43949160      10.97195830
O         10.40557050       7.31116670      11.64324210
O         10.24942420       8.65500280      14.94188690
O          5.86923130       5.75197920      14.76786770
O          8.65284540      12.32619370      10.97395230
O          6.90902030      10.28589870      10.88805900
O          8.50175690       6.76477280      13.67663110
O          6.59146160      14.42429860       4.05085640
O          6.89518910      12.26869830       2.53218230
O          8.97247360      11.07115950       1.26992800
O         10.34617920      13.78342130       5.79741600
O          5.06052110      10.27332100       4.13114840
O          7.29665120      15.55252800       1.66202510
O          4.64802570      14.46879000       2.39501090
O          9.38236520      12.32076480       3.58889610
O          6.51752800      13.94768080       9.19972630
O          7.30012640      12.26490560       6.44455730
O          9.79037700      11.15341790       6.15807010
O          9.41117320      14.54256450      10.00485690
O          5.66461580      11.35091080       8.75974040
O          8.45822860      15.27670620       7.49825610
O          6.07567930      14.58861180       6.62780300
O          8.85120880      12.68015850       8.17480800
O          6.35459650      13.75545080       0.37326840
O          8.65355110      14.35893500      12.91713840
O         10.88884560      13.26807550      11.62570720
O          9.04739630      13.59484860       0.92621710
O          6.64808630      11.31963170      13.63444350
O          7.89247100       0.68119230      13.57337590
O          6.55946840      15.48158430      11.56088200
O          9.35891770      11.81109160      13.23197810
Si         0.31956520       4.37526880       4.73303760
Si         1.92539030       1.00057290       3.12607230
Si        10.13013450       4.35789160      10.48007730
Si         3.31939340       1.04979460       8.10249590
Si        11.17930150       4.58079120      15.20464800
Si         2.80251940       1.14921640      12.65377070
Si         0.67284920       9.41384410       4.57287550
Si         2.74309290       6.13990590       2.22513950
Si        11.22224550      10.12845920      10.29114120
Si         2.58675750       6.19729040       7.77886360
Si         0.52204790       9.58752050      14.68832620
Si         3.20476800       6.71854230      12.04095430
Si         0.51097980      14.77767740       4.80147570
Si         2.95894620      11.49651480       1.72994500
Si        10.83794050      15.37725330       9.83893700
Si         2.75689540      11.56744940       7.40969080
Si        10.25930280      14.68691190       0.55165280
Si         3.47421930      12.30882700      12.11523830
Si         6.11907230       3.85807690       5.26206590
Si         7.77814190       0.78873260       2.39078010
Si         6.25712230       4.74370950       9.52394850
Si         8.58260430       0.66908560       6.92657050
Si         5.94470920       4.18218210      14.60168900
Si         7.68068300       0.65518940      11.92674410
Si         5.50600130       8.97318770       5.00887160
Si         8.10279480       5.73800950       2.53851060
Si         5.89244280      10.01359840       9.67489690
Si         8.91506670       5.91527080       8.25574230
Si         6.85215800       9.76852880      14.12632620
Si         8.97930420       6.67307630      12.16764610
Si         5.38359930      14.55701780       5.14970380
Si         8.31780410      11.51765100       2.71856450
Si         5.87945580      15.16668210      10.11543350
Si         8.53291030      11.40378750       7.13676860
Si         3.64593930      15.39069290       1.55942760
Si         9.37664120      13.12065950      12.23744850
