Fe Li  O Si                             
   1.00000000000000     
     6.2186742093635976    0.0000131631841427    0.0434676761041818
     0.0000113300705889    5.3508746614437674   -0.0000015555565478
     0.0341944043429194   -0.0000013697590527    4.9537275719578435
   Fe   Li   O    Si
     2     2     8     2
Direct
  0.7505510466699477  0.3329200672015062  0.0066226759290231
  0.2505508398558689  0.6670801602947307  0.5066218911681801
  0.5028077181654069  0.8385898338836455  0.0037066481758430
  0.0028080719677206  0.1614107324584708  0.5037070268672252
  0.2189658154267917  0.7158034685718491  0.8801521492161228
  0.2854104457907241  0.3275704782625155  0.4329075035996226
  0.7189689702673476  0.2841984611578496  0.3801501115639141
  0.7854072665804708  0.6724268597889846  0.9329062878372909
  0.9747760791467925  0.1196416968352949  0.8994251973371021
  0.4747776115524758  0.8803599176410870  0.3994247192366416
  0.5226699104191610  0.1695646191138920  0.8399509739212050
  0.0226682034598298  0.8304359415275542  0.3399477819253178
  0.9988223949523842  0.8343464539685641  0.0122398770025782
  0.4988156417450824  0.1656513542940630  0.5122371392199057
 
  0.00000000E+00  0.00000000E+00  0.00000000E+00
  0.00000000E+00  0.00000000E+00  0.00000000E+00
  0.00000000E+00  0.00000000E+00  0.00000000E+00
  0.00000000E+00  0.00000000E+00  0.00000000E+00
  0.00000000E+00  0.00000000E+00  0.00000000E+00
  0.00000000E+00  0.00000000E+00  0.00000000E+00
  0.00000000E+00  0.00000000E+00  0.00000000E+00
  0.00000000E+00  0.00000000E+00  0.00000000E+00
  0.00000000E+00  0.00000000E+00  0.00000000E+00
  0.00000000E+00  0.00000000E+00  0.00000000E+00
  0.00000000E+00  0.00000000E+00  0.00000000E+00
  0.00000000E+00  0.00000000E+00  0.00000000E+00
  0.00000000E+00  0.00000000E+00  0.00000000E+00
  0.00000000E+00  0.00000000E+00  0.00000000E+00
