    48
 Wannier centres, written by Wannier90 on25Jan2026 at 01:54:55 
X          0.03474921       0.86426356       2.49519445
X          3.12699411       4.48662005       0.04006162
X          1.65688736       3.95175207       4.41490586
X          4.74914095       1.39913387       1.95975823
X          6.24227773       0.78913786       4.67624293
X          3.11585897       4.56176924       2.17764423
X          1.82621966       1.85709319       1.90383499
X          4.95263471       3.49376662       4.40242751
X          0.04118271       4.20230928       1.76726483
X          3.16761516       1.14857352       4.26588685
X          1.37491646       3.81871681       3.88922017
X          4.46716822       1.53217759       1.43407590
X          2.13471024       1.56443045       2.29598659
X          5.26114122       3.78644506       4.79457618
X          3.69362880       1.11712882       4.30362863
X          0.56719661       4.23374934       1.80502066
X          6.05393047       0.24995315       4.65000083
X          2.92750228       5.10094483       2.15139240
X          4.95013044       3.16292701       4.81962648
X          1.82370989       2.18794331       2.32102979
X          1.04705643       4.04560950       4.47116170
X          4.13929287       1.30529135       2.01602533
X          0.17107251       4.45505230       1.26675077
X          3.29749494       0.89583202       3.76535853
X          1.52692670       1.68035401       2.27258862
X          4.65334335       3.67051412       4.77118253
X          1.32494506       3.57202623       4.37597274
X          4.41721273       1.77887096       1.92082289
X          5.68995669       0.85951622       4.66118934
X          2.56353495       4.49138116       2.16259075
X          2.93273728       4.67641899       1.71151481
X          6.05916000       0.67447712       4.21011374
X          0.17317786       4.68464673       1.84009952
X          3.29961085       0.66623260       4.33871200
Fe         4.66766270       1.78142340       0.06543110
Fe         1.57542520       3.56946490       2.52055670
Li         3.12693360       4.48719570       0.04021630
Li         0.03468830       0.86368790       2.49534920
O          1.39178150       3.83017630       4.36955080
O          1.78968130       1.75279170       2.15691150
O          4.48403600       1.52071930       1.91441160
O          4.91609970       3.59808090       4.65550240
O          6.09257150       0.64019930       4.49787850
O          2.96615540       4.71070130       1.99927740
O          3.27903740       0.90732480       4.18360730
O          0.15259990       4.44355850       1.68499270
Si         6.21177910       4.46449640       0.10404820
Si         3.11948950       0.88638550       2.55916530
