    58
 Wannier centres, written by Wannier90 on25Jan2026 at 02:02:49 
X          0.03474302       0.86434941       2.49518831
X          3.12698791       4.48653408       0.04005548
X          6.11514606       4.52834520       1.84260900
X          3.02292472       0.82258755       4.29772233
X          1.82671113       1.72175546       1.86794005
X          4.95310241       3.62910181       4.36653003
X          4.44733214       1.77274544       2.06402136
X          1.35503489       3.57818457       4.51915755
X          3.23162243       4.65909538       2.11592697
X          0.13935535       0.69180196       4.57106088
X          1.61163021       4.01925537       4.48087462
X          4.70386315       1.33162478       2.02570605
X          1.56322458       1.58425108       2.28872321
X          4.68964184       3.76661308       4.78732769
X          2.96382076       4.76846219       1.69045878
X          6.09024638       0.58244798       4.18905236
X          3.49718479       0.68052314       4.17668530
X          0.37069873       4.67031170       1.67801694
X          2.91234063       5.09762040       2.15734417
X          6.03877899       0.25326937       4.65594514
X          1.03495000       4.02262153       4.48406614
X          3.21969936       0.93831947       3.76693255
X          0.09328608       4.41255548       1.26831625
X          4.12719657       1.32827904       2.02894786
X          2.14024401       1.56388761       2.29582999
X          5.26667862       3.78700261       4.79440022
X          1.37114390       3.80310278       4.01911732
X          4.46337993       1.54776576       1.56397992
X          0.30519665       4.14858277       1.77317588
X          2.70177318       4.51842378       2.12565136
X          3.43157261       1.20231465       4.27176471
X          5.82818656       0.83246611       4.62425836
X          4.94463844       3.25729637       4.77229721
X          1.81820123       2.09358010       2.27369646
X          4.64991726       1.79063765       0.05614443
X          1.55762778       3.56023902       2.51127274
X          4.65640666       1.77790006       0.07135584
X          1.56413617       3.57298249       2.52649171
X          1.61209856       3.56208404       2.53696684
X          4.70433837       1.78879771       0.08185282
X          4.65107379       1.78185860       0.08907665
X          1.55892894       3.56909075       2.54420043
X          1.58488480       3.56803493       2.48074716
X          4.71132133       1.78281668       4.97934917
Fe         4.66766270       1.78142340       0.06543110
Fe         1.57542520       3.56946490       2.52055670
Li         3.12693360       4.48719570       0.04021630
Li         0.03468830       0.86368790       2.49534920
O          1.39178150       3.83017630       4.36955080
O          1.78968130       1.75279170       2.15691150
O          4.48403600       1.52071930       1.91441160
O          4.91609970       3.59808090       4.65550240
O          6.09257150       0.64019930       4.49787850
O          2.96615540       4.71070130       1.99927740
O          3.27903740       0.90732480       4.18360730
O          0.15259990       4.44355850       1.68499270
Si         6.21177910       4.46449640       0.10404820
Si         3.11948950       0.88638550       2.55916530
