Fe  O Si                                
   1.0000000000000000     
    11.2895731353739830   -0.0913846837830024    0.4546268820614538
    -0.1371558884887150   16.1208983526732830    0.1862265149228418
     0.5342344283447718    0.1653092019479867   14.5301820349493518
   Fe   O    Si
    36   144    36
Direct
  0.1208144797587415  0.2329460635463118  0.1678185380584346
  0.4026878887479003  0.0754586239626994  0.3059439416862539
  0.0958953162812240  0.2035449559170473  0.5528376835629589
  0.4501850136190192  0.1154869387348753  0.6722438956017377
  0.1395184188988938  0.2773027062943004  0.7544536528825880
  0.2446064831516346  0.2148371454516622  0.9898863496445925
  0.2103480412310892  0.5593520678795553  0.1207352978673254
  0.3462727902785121  0.3936750581794708  0.3377857037043399
  0.1220982183704658  0.5368701480596948  0.5311510415511354
  0.4065173879107035  0.4785467262721750  0.6323510968230359
  0.1263875490738189  0.6345365094799547  0.8356767602279807
  0.3771299919109226  0.4192153457186133  0.9976460336894329
  0.1570552444375737  0.8848451520562766  0.0963288065110043
  0.3841538460556392  0.7161758892365128  0.3279453000007806
  0.2013141767538018  0.8695492173545202  0.4800848221838628
  0.4156784058650478  0.7946898559910470  0.6300025425742342
  0.1761098582243219  0.9282890148291002  0.8057679791784974
  0.5556250133348636  0.7391686634167924  0.9767815533635058
  0.5158489711293260  0.1163774461927820  0.1184526435717538
  0.9079670528246525  0.0915780707405537  0.2856217768627425
  0.5342231192857709  0.1599813961553227  0.4617810003184332
  0.8497073273668452  0.1015175545691893  0.6535360634288820
  0.6324256007684985  0.2283788626771183  0.8002943342023855
  0.7682591342627735  0.0981418119934050  0.9489882341630274
  0.7343064399383424  0.5114252965069915  0.1705478921134220
  0.8897083972801939  0.4448783423958532  0.3605281994183803
  0.6750035234873580  0.5226989513221723  0.4724440334429891
  0.8343116734692444  0.5026064024022575  0.6745563364443976
  0.6865156882914673  0.6637737024525560  0.7859491193954625
  0.8339602030586193  0.4651231318019274  0.0071625840687840
  0.5689434861309238  0.8466620153027112  0.1167493929634633
  0.9161078700395719  0.7419166533617010  0.2969216838008616
  0.6598061581929217  0.8679027159589335  0.4742572378014089
  0.9530797952472487  0.7914984685113844  0.4931821312354784
  0.7196418196279163  0.9167891324496057  0.9494322600642756
  0.8711398848094267  0.7403961913077821  0.9234025316693901
  0.1326088453668042  0.2421489066777145  0.2864212461429744
  0.0568054192323987  0.1248010661657298  0.1927637234371921
  0.2601869840814162  0.2111215554594031  0.1219194784949896
  0.4637656408687531  0.1784900151611428  0.2260275082097850
  0.0434241441263944  0.9958228160160657  0.2809333994452716
  0.0907458690878593  0.3362564739288274  0.1540859204435217
  0.0750733052828630  0.2211746147883019  0.0456618336888730
  0.2453897071718827  0.0934932114729959  0.2914546314073318
  0.9498085143750525  0.1915333127908320  0.6291615793201533
  0.1662874663803189  0.1115624574975204  0.5030665478933103
  0.3944333872849367  0.0927798049385632  0.4397340657852313
  0.4929555089946608  0.2063410001001545  0.5795779949863694
  0.9587978249292392  0.0301720827842598  0.6180118603657493
  0.1655985575630413  0.3038609807205662  0.6061099305102114
  0.0395286492817775  0.2604651006240772  0.4536609291934008
  0.3171456299388448  0.0882108005889910  0.6208771487052279
  0.9321962028639277  0.3190182392498183  0.9506443083916403
  0.1471724670954062  0.1719467655005398  0.7139111439911585
  0.3689187908780477  0.1706199773815006  0.7583361756763747
  0.2924935925385356  0.3169596554835731  0.9770585847435858
  0.8466484453566976  0.9981224864360780  0.9737479854516063
  0.1824163801529656  0.3737677717854628  0.7937935994140375
  0.9848172941842481  0.2825320374258394  0.7647556324582996
  0.1949279619706696  0.2068755886116213  0.8665004598572758
  0.2179395338596140  0.5775021191110739  0.2454482618958818
  0.1117030177312930  0.4749296075592348  0.1391241813210017
  0.3341697759947411  0.4739651057823979  0.0909730243364047
  0.4256396303427851  0.4868870907828954  0.3596925959613498
  0.9852362213919004  0.3583938310941958  0.3039066667993326
  0.3159300591424088  0.6413973128771970  0.0923430556931395
  0.0953978085910811  0.6105360310620914  0.0567307136786606
  0.2144158159889098  0.4069519391196041  0.2832286547535108
  0.9772983430702383  0.5528788754383713  0.6139958897732715
  0.0808829266541396  0.4335747187460743  0.4986874435961705
  0.2859957270238594  0.3544583442244897  0.4493761252365462
  0.3960195366216797  0.5849312584846119  0.6475040771065076
  0.8681984112364219  0.3371708854106804  0.6184838463092339
  0.1793992450518845  0.6322269375353864  0.5753844425853931
  0.1092638995439972  0.5890855336255834  0.4200032822849923
  0.2470408136278658  0.4678133322148177  0.5818537724320981
  0.9179634969136005  0.5421929451068647  0.9391329876099237
  0.1644823089556166  0.5351106176551175  0.7957233935085074
  0.3764035535791972  0.4564657194080318  0.7533198219898966
  0.4994137916518007  0.4789626338915903  0.9433055751209785
  0.9559496876226875  0.3916774677324289  0.9978076862802314
  0.2578875717437472  0.6713876608231376  0.8796297573722999
  0.0569308321529906  0.6671320496955998  0.7376040897109915
  0.2736021284401856  0.4655355800719992  0.9260376787410456
  0.0976351155919737  0.8516162224510732  0.2111673988110391
  0.2101742392108889  0.7839328903549865  0.0749311049055541
  0.4408174140822512  0.7813162005171961  0.0857126414210385
  0.3936576294796106  0.8156571653236222  0.3819760317092788
  0.0259455569137671  0.6638866087257974  0.2709765459438889
  0.2127629172967163  0.0048439059285878  0.1466176189086261
  0.0221183841718695  0.9344092406413919  0.0671916368020718
  0.3030886067976472  0.7514866283334416  0.2349810875729722
  0.0329045926076409  0.8913458336059492  0.5334704008048637
  0.1324726408911645  0.7632286430729025  0.4519367958469898
  0.3285965737299404  0.6650012010496448  0.4325521403592819
  0.3745333485713142  0.8949364894963571  0.6795979936599474
  0.9564168090294478  0.7195941983182356  0.5920366007902846
  0.2752760454630955  0.9604996774293333  0.5144430310833017
  0.1776439815633864  0.9069771156764271  0.3687881154315690
  0.2760926054344458  0.7889843671856320  0.5579559245688368
  0.0362913645141127  0.9327810989014668  0.8810340392345407
  0.2543419334907100  0.8356650063861449  0.8465825891386086
  0.3702750860790826  0.7345813475173414  0.7298013803869217
  0.2618652980893409  0.9324667797025359  0.0071043442667598
  0.0108007878906433  0.6764396310609648  0.9235095516941841
  0.2351120177013099  0.0376789214099944  0.8115687769704203
  0.1091597125048150  0.9263777948383157  0.6931203618860738
  0.4597406433080384  0.7572903826716191  0.8867858231199248
  0.6548086218819186  0.2797624016263755  0.2207681485674683
  0.5715782243419462  0.0498626706246927  0.2120364454697038
  0.6819253904929853  0.0955803747058137  0.0722920038246619
  0.9032728592882180  0.2028967239463595  0.3177145313856701
  0.3969514539799848  0.9629651137518525  0.2978715450243827
  0.6733113562137036  0.2723553232227346  0.0386361965602329
  0.4754651514911614  0.1884539154374888  0.0332622071085112
  0.8105561039148009  0.0365058312654705  0.2095207171116873
  0.6621504715234986  0.3119368922858868  0.5518159856006756
  0.6551780272296008  0.0944913255262780  0.4196557878655203
  0.8818594335589055  0.0484469911391390  0.4039357008437283
  0.7721994646903192  0.1888839358622695  0.7133824365721323
  0.5207182794923414  0.0316312099520561  0.6061241813810028
  0.8411160825162206  0.3625459387358180  0.4387520154534655
  0.5255363535915260  0.2452253046469817  0.3788611338210960
  0.7656612133144194  0.1112960208603229  0.5586911757737075
  0.5445524098811927  0.2836780839518856  0.8887690698618065
  0.5709877064085240  0.1139957204475250  0.7600809437275757
  0.7730542833983282  0.0319346211215943  0.7332941122937711
  0.8987428859813742  0.1567129261725657  0.9686708189602683
  0.2576748708969767  0.1019617671914215  0.9899947036827443
  0.7778520049600675  0.3126283216047356  0.7853489742110317
  0.5605855855388879  0.2871008274025359  0.7188877761943093
  0.7046215763648037  0.1793585114833138  0.8932196277160496
  0.5844546303426915  0.5022172161373806  0.2168438332311336
  0.7540905401924674  0.4042110012766827  0.1130968358959500
  0.8618520674993860  0.2567999698896899  0.1191305794781512
  0.0233238593779961  0.4974012560537026  0.2947150486344610
  0.4375373825870056  0.3416527925361982  0.2530857948380278
  0.7438466733931974  0.6185014719889185  0.1983263538165898
  0.6938287355341597  0.5339355160800805  0.0373552838389129
  0.7931220511451542  0.4702489863216883  0.2645592962775087
  0.5417847230474129  0.5295165975364206  0.5559179550261762
  0.6359178165534782  0.4340107277982813  0.4302187538249028
  0.8330854739852294  0.5283766060882157  0.4178629315925078
  0.8327345025653565  0.6170347741033810  0.7189952402942092
  0.4449974223378246  0.3723039368173470  0.5980905052539006
  0.6822336818822576  0.6381650737579910  0.5383587823531113
  0.6182344999251428  0.5830802780171950  0.3813129521790996
  0.7608591407521226  0.4670725604232538  0.5672492791815433
  0.6671681403409737  0.5742259237684738  0.8629858133605406
  0.7062951976398056  0.4606964336392650  0.7397172532005191
  0.9118192048413674  0.4517789215985062  0.7654913627711588
  0.8934197343907595  0.5272127952446565  0.0986938550127866
  0.4790255464005377  0.3532786444326507  0.0513943342582642
  0.7123816411218141  0.7615503547111694  0.7233548767673791
  0.5878394885255415  0.6246681124985808  0.7094634908047157
  0.7539249305706429  0.4187731624181610  0.9202151020948670
  0.5419037660225828  0.8432552597695545  0.2369839466024984
  0.6572485670728982  0.7434030204576728  0.0885919773436951
  0.8639010272486896  0.6801940029732922  0.0459940420521446
  0.9565223935193520  0.8439598323912134  0.3604778146098006
  0.4671234519677266  0.6362568881913996  0.2732004101920380
  0.6795155480569839  0.9332497603122010  0.1061968329469267
  0.4313157905194573  0.0291126863103868  0.0769770468158222
  0.8244121222567881  0.7678166220787839  0.2022788595321030
  0.5531636195332268  0.8660509072720141  0.5895538063046073
  0.6322284277338696  0.7685201994569030  0.4178754240746574
  0.8529639924803588  0.6967658016276824  0.4122829250710890
  0.8792929709077710  0.8803588774791311  0.6739850556676454
  0.4877437245816668  0.7126775232820041  0.5696462419129199
  0.7354622006607358  0.9569720744105982  0.5111658340914511
  0.5754163162871840  0.9226726011862467  0.3944149613131406
  0.7762347757935060  0.8006978366573546  0.5248769244749959
  0.5854390860298998  0.8542363541510167  0.9872702085519859
  0.7450033059308819  0.8918440861227288  0.8287015000350145
  0.9081846063923350  0.7772874787933232  0.8112028761241615
  0.8628753149043341  0.8470252249378799  0.9810131686612352
  0.5242014991696292  0.6340188890872083  0.9964020395727132
  0.6555556339492854  0.0247643343830624  0.8993686384779608
  0.5605330186612493  0.9519289053284331  0.7548669316655792
  0.7147815927515626  0.7214595227712580  0.8996887451200407
  0.0066248793656005  0.2625391485330897  0.3487797695257694
  0.1482130404425133  0.0568114710034065  0.2299497693960789
  0.8738852237717074  0.2661729858793773  0.7004697902794812
  0.2856523178557243  0.0614962010587592  0.5169398787193961
  0.9391152986672431  0.2360673733001465  0.0235386642862090
  0.2351849675110368  0.1337631234624328  0.7911867647276402
  0.0952569997771289  0.5867296723194723  0.3098736909361757
  0.0926565556193473  0.4133067682166977  0.2323939911744499
  0.9611948807516046  0.6450651990241559  0.6645899397361839
  0.1967836212247586  0.3821282432807953  0.5346358400601342
  0.9654668358021118  0.6050642391880934  0.0198205290721047
  0.2526646752723408  0.4588435870883065  0.8174120470644484
  0.0652335107590805  0.8972639623905938  0.3069359603157032
  0.3150156739288941  0.7360584097980389  0.1245292465579064
  0.9971409009154825  0.9323361377945523  0.6344326906756365
  0.2291491983859772  0.7055282559074918  0.5045200323508192
  0.9554798717985724  0.9294828895930231  0.9739624447731774
  0.3331244686700969  0.7549515629233251  0.8381899525856532
  0.5216578473184705  0.2629225239545093  0.2701768715972020
  0.6966541517591280  0.0236300096601724  0.1549227532899196
  0.5362186794487475  0.2988956445657608  0.6114957758852185
  0.7616471525518588  0.0495552512468300  0.4683751128874492
  0.5436460982229729  0.2762933907184348  0.9997685374607840
  0.6405972074692399  0.0285694389894612  0.7869470251927708
  0.5252978555568464  0.5498639071452245  0.3079701075446831
  0.7348791640676596  0.3042033585967873  0.1278701318446956
  0.5379574735015973  0.6238425696383570  0.6067851607303988
  0.7807853913485548  0.3681498046006587  0.5424989081204192
  0.5953533336187739  0.5515039052399889  0.9612819062852688
  0.7873323778468132  0.4093834301211934  0.8119361056110845
  0.4772889273766862  0.8880827663701740  0.3277618956881172
  0.7683714215729224  0.7029018752380477  0.1356741781969669
  0.5041456134056479  0.9407397614112413  0.6560894580519367
  0.7298994971262844  0.7162214963642598  0.4718064928548556
  0.2960073013419076  0.0225348261342507  0.0478840397723790
  0.8075097081427319  0.8295449955836616  0.7567238810318569

  0.00000000E+00  0.00000000E+00  0.00000000E+00
  0.00000000E+00  0.00000000E+00  0.00000000E+00
  0.00000000E+00  0.00000000E+00  0.00000000E+00
  0.00000000E+00  0.00000000E+00  0.00000000E+00
  0.00000000E+00  0.00000000E+00  0.00000000E+00
  0.00000000E+00  0.00000000E+00  0.00000000E+00
  0.00000000E+00  0.00000000E+00  0.00000000E+00
  0.00000000E+00  0.00000000E+00  0.00000000E+00
  0.00000000E+00  0.00000000E+00  0.00000000E+00
  0.00000000E+00  0.00000000E+00  0.00000000E+00
  0.00000000E+00  0.00000000E+00  0.00000000E+00
  0.00000000E+00  0.00000000E+00  0.00000000E+00
  0.00000000E+00  0.00000000E+00  0.00000000E+00
  0.00000000E+00  0.00000000E+00  0.00000000E+00
  0.00000000E+00  0.00000000E+00  0.00000000E+00
  0.00000000E+00  0.00000000E+00  0.00000000E+00
  0.00000000E+00  0.00000000E+00  0.00000000E+00
  0.00000000E+00  0.00000000E+00  0.00000000E+00
  0.00000000E+00  0.00000000E+00  0.00000000E+00
  0.00000000E+00  0.00000000E+00  0.00000000E+00
  0.00000000E+00  0.00000000E+00  0.00000000E+00
  0.00000000E+00  0.00000000E+00  0.00000000E+00
  0.00000000E+00  0.00000000E+00  0.00000000E+00
  0.00000000E+00  0.00000000E+00  0.00000000E+00
  0.00000000E+00  0.00000000E+00  0.00000000E+00
  0.00000000E+00  0.00000000E+00  0.00000000E+00
  0.00000000E+00  0.00000000E+00  0.00000000E+00
  0.00000000E+00  0.00000000E+00  0.00000000E+00
  0.00000000E+00  0.00000000E+00  0.00000000E+00
  0.00000000E+00  0.00000000E+00  0.00000000E+00
  0.00000000E+00  0.00000000E+00  0.00000000E+00
  0.00000000E+00  0.00000000E+00  0.00000000E+00
  0.00000000E+00  0.00000000E+00  0.00000000E+00
  0.00000000E+00  0.00000000E+00  0.00000000E+00
  0.00000000E+00  0.00000000E+00  0.00000000E+00
  0.00000000E+00  0.00000000E+00  0.00000000E+00
  0.00000000E+00  0.00000000E+00  0.00000000E+00
  0.00000000E+00  0.00000000E+00  0.00000000E+00
  0.00000000E+00  0.00000000E+00  0.00000000E+00
  0.00000000E+00  0.00000000E+00  0.00000000E+00
  0.00000000E+00  0.00000000E+00  0.00000000E+00
  0.00000000E+00  0.00000000E+00  0.00000000E+00
  0.00000000E+00  0.00000000E+00  0.00000000E+00
  0.00000000E+00  0.00000000E+00  0.00000000E+00
  0.00000000E+00  0.00000000E+00  0.00000000E+00
  0.00000000E+00  0.00000000E+00  0.00000000E+00
  0.00000000E+00  0.00000000E+00  0.00000000E+00
  0.00000000E+00  0.00000000E+00  0.00000000E+00
  0.00000000E+00  0.00000000E+00  0.00000000E+00
  0.00000000E+00  0.00000000E+00  0.00000000E+00
  0.00000000E+00  0.00000000E+00  0.00000000E+00
  0.00000000E+00  0.00000000E+00  0.00000000E+00
  0.00000000E+00  0.00000000E+00  0.00000000E+00
  0.00000000E+00  0.00000000E+00  0.00000000E+00
  0.00000000E+00  0.00000000E+00  0.00000000E+00
  0.00000000E+00  0.00000000E+00  0.00000000E+00
  0.00000000E+00  0.00000000E+00  0.00000000E+00
  0.00000000E+00  0.00000000E+00  0.00000000E+00
  0.00000000E+00  0.00000000E+00  0.00000000E+00
  0.00000000E+00  0.00000000E+00  0.00000000E+00
  0.00000000E+00  0.00000000E+00  0.00000000E+00
  0.00000000E+00  0.00000000E+00  0.00000000E+00
  0.00000000E+00  0.00000000E+00  0.00000000E+00
  0.00000000E+00  0.00000000E+00  0.00000000E+00
  0.00000000E+00  0.00000000E+00  0.00000000E+00
  0.00000000E+00  0.00000000E+00  0.00000000E+00
  0.00000000E+00  0.00000000E+00  0.00000000E+00
  0.00000000E+00  0.00000000E+00  0.00000000E+00
  0.00000000E+00  0.00000000E+00  0.00000000E+00
  0.00000000E+00  0.00000000E+00  0.00000000E+00
  0.00000000E+00  0.00000000E+00  0.00000000E+00
  0.00000000E+00  0.00000000E+00  0.00000000E+00
  0.00000000E+00  0.00000000E+00  0.00000000E+00
  0.00000000E+00  0.00000000E+00  0.00000000E+00
  0.00000000E+00  0.00000000E+00  0.00000000E+00
  0.00000000E+00  0.00000000E+00  0.00000000E+00
  0.00000000E+00  0.00000000E+00  0.00000000E+00
  0.00000000E+00  0.00000000E+00  0.00000000E+00
  0.00000000E+00  0.00000000E+00  0.00000000E+00
  0.00000000E+00  0.00000000E+00  0.00000000E+00
  0.00000000E+00  0.00000000E+00  0.00000000E+00
  0.00000000E+00  0.00000000E+00  0.00000000E+00
  0.00000000E+00  0.00000000E+00  0.00000000E+00
  0.00000000E+00  0.00000000E+00  0.00000000E+00
  0.00000000E+00  0.00000000E+00  0.00000000E+00
  0.00000000E+00  0.00000000E+00  0.00000000E+00
  0.00000000E+00  0.00000000E+00  0.00000000E+00
  0.00000000E+00  0.00000000E+00  0.00000000E+00
  0.00000000E+00  0.00000000E+00  0.00000000E+00
  0.00000000E+00  0.00000000E+00  0.00000000E+00
  0.00000000E+00  0.00000000E+00  0.00000000E+00
  0.00000000E+00  0.00000000E+00  0.00000000E+00
  0.00000000E+00  0.00000000E+00  0.00000000E+00
  0.00000000E+00  0.00000000E+00  0.00000000E+00
  0.00000000E+00  0.00000000E+00  0.00000000E+00
  0.00000000E+00  0.00000000E+00  0.00000000E+00
  0.00000000E+00  0.00000000E+00  0.00000000E+00
  0.00000000E+00  0.00000000E+00  0.00000000E+00
  0.00000000E+00  0.00000000E+00  0.00000000E+00
  0.00000000E+00  0.00000000E+00  0.00000000E+00
  0.00000000E+00  0.00000000E+00  0.00000000E+00
  0.00000000E+00  0.00000000E+00  0.00000000E+00
  0.00000000E+00  0.00000000E+00  0.00000000E+00
  0.00000000E+00  0.00000000E+00  0.00000000E+00
  0.00000000E+00  0.00000000E+00  0.00000000E+00
  0.00000000E+00  0.00000000E+00  0.00000000E+00
  0.00000000E+00  0.00000000E+00  0.00000000E+00
  0.00000000E+00  0.00000000E+00  0.00000000E+00
  0.00000000E+00  0.00000000E+00  0.00000000E+00
  0.00000000E+00  0.00000000E+00  0.00000000E+00
  0.00000000E+00  0.00000000E+00  0.00000000E+00
  0.00000000E+00  0.00000000E+00  0.00000000E+00
  0.00000000E+00  0.00000000E+00  0.00000000E+00
  0.00000000E+00  0.00000000E+00  0.00000000E+00
  0.00000000E+00  0.00000000E+00  0.00000000E+00
  0.00000000E+00  0.00000000E+00  0.00000000E+00
  0.00000000E+00  0.00000000E+00  0.00000000E+00
  0.00000000E+00  0.00000000E+00  0.00000000E+00
  0.00000000E+00  0.00000000E+00  0.00000000E+00
  0.00000000E+00  0.00000000E+00  0.00000000E+00
  0.00000000E+00  0.00000000E+00  0.00000000E+00
  0.00000000E+00  0.00000000E+00  0.00000000E+00
  0.00000000E+00  0.00000000E+00  0.00000000E+00
  0.00000000E+00  0.00000000E+00  0.00000000E+00
  0.00000000E+00  0.00000000E+00  0.00000000E+00
  0.00000000E+00  0.00000000E+00  0.00000000E+00
  0.00000000E+00  0.00000000E+00  0.00000000E+00
  0.00000000E+00  0.00000000E+00  0.00000000E+00
  0.00000000E+00  0.00000000E+00  0.00000000E+00
  0.00000000E+00  0.00000000E+00  0.00000000E+00
  0.00000000E+00  0.00000000E+00  0.00000000E+00
  0.00000000E+00  0.00000000E+00  0.00000000E+00
  0.00000000E+00  0.00000000E+00  0.00000000E+00
  0.00000000E+00  0.00000000E+00  0.00000000E+00
  0.00000000E+00  0.00000000E+00  0.00000000E+00
  0.00000000E+00  0.00000000E+00  0.00000000E+00
  0.00000000E+00  0.00000000E+00  0.00000000E+00
  0.00000000E+00  0.00000000E+00  0.00000000E+00
  0.00000000E+00  0.00000000E+00  0.00000000E+00
  0.00000000E+00  0.00000000E+00  0.00000000E+00
  0.00000000E+00  0.00000000E+00  0.00000000E+00
  0.00000000E+00  0.00000000E+00  0.00000000E+00
  0.00000000E+00  0.00000000E+00  0.00000000E+00
  0.00000000E+00  0.00000000E+00  0.00000000E+00
  0.00000000E+00  0.00000000E+00  0.00000000E+00
  0.00000000E+00  0.00000000E+00  0.00000000E+00
  0.00000000E+00  0.00000000E+00  0.00000000E+00
  0.00000000E+00  0.00000000E+00  0.00000000E+00
  0.00000000E+00  0.00000000E+00  0.00000000E+00
  0.00000000E+00  0.00000000E+00  0.00000000E+00
  0.00000000E+00  0.00000000E+00  0.00000000E+00
  0.00000000E+00  0.00000000E+00  0.00000000E+00
  0.00000000E+00  0.00000000E+00  0.00000000E+00
  0.00000000E+00  0.00000000E+00  0.00000000E+00
  0.00000000E+00  0.00000000E+00  0.00000000E+00
  0.00000000E+00  0.00000000E+00  0.00000000E+00
  0.00000000E+00  0.00000000E+00  0.00000000E+00
  0.00000000E+00  0.00000000E+00  0.00000000E+00
  0.00000000E+00  0.00000000E+00  0.00000000E+00
  0.00000000E+00  0.00000000E+00  0.00000000E+00
  0.00000000E+00  0.00000000E+00  0.00000000E+00
  0.00000000E+00  0.00000000E+00  0.00000000E+00
  0.00000000E+00  0.00000000E+00  0.00000000E+00
  0.00000000E+00  0.00000000E+00  0.00000000E+00
  0.00000000E+00  0.00000000E+00  0.00000000E+00
  0.00000000E+00  0.00000000E+00  0.00000000E+00
  0.00000000E+00  0.00000000E+00  0.00000000E+00
  0.00000000E+00  0.00000000E+00  0.00000000E+00
  0.00000000E+00  0.00000000E+00  0.00000000E+00
  0.00000000E+00  0.00000000E+00  0.00000000E+00
  0.00000000E+00  0.00000000E+00  0.00000000E+00
  0.00000000E+00  0.00000000E+00  0.00000000E+00
  0.00000000E+00  0.00000000E+00  0.00000000E+00
  0.00000000E+00  0.00000000E+00  0.00000000E+00
  0.00000000E+00  0.00000000E+00  0.00000000E+00
  0.00000000E+00  0.00000000E+00  0.00000000E+00
  0.00000000E+00  0.00000000E+00  0.00000000E+00
  0.00000000E+00  0.00000000E+00  0.00000000E+00
  0.00000000E+00  0.00000000E+00  0.00000000E+00
  0.00000000E+00  0.00000000E+00  0.00000000E+00
  0.00000000E+00  0.00000000E+00  0.00000000E+00
  0.00000000E+00  0.00000000E+00  0.00000000E+00
  0.00000000E+00  0.00000000E+00  0.00000000E+00
  0.00000000E+00  0.00000000E+00  0.00000000E+00
  0.00000000E+00  0.00000000E+00  0.00000000E+00
  0.00000000E+00  0.00000000E+00  0.00000000E+00
  0.00000000E+00  0.00000000E+00  0.00000000E+00
  0.00000000E+00  0.00000000E+00  0.00000000E+00
  0.00000000E+00  0.00000000E+00  0.00000000E+00
  0.00000000E+00  0.00000000E+00  0.00000000E+00
  0.00000000E+00  0.00000000E+00  0.00000000E+00
  0.00000000E+00  0.00000000E+00  0.00000000E+00
  0.00000000E+00  0.00000000E+00  0.00000000E+00
  0.00000000E+00  0.00000000E+00  0.00000000E+00
  0.00000000E+00  0.00000000E+00  0.00000000E+00
  0.00000000E+00  0.00000000E+00  0.00000000E+00
  0.00000000E+00  0.00000000E+00  0.00000000E+00
  0.00000000E+00  0.00000000E+00  0.00000000E+00
  0.00000000E+00  0.00000000E+00  0.00000000E+00
  0.00000000E+00  0.00000000E+00  0.00000000E+00
  0.00000000E+00  0.00000000E+00  0.00000000E+00
  0.00000000E+00  0.00000000E+00  0.00000000E+00
  0.00000000E+00  0.00000000E+00  0.00000000E+00
  0.00000000E+00  0.00000000E+00  0.00000000E+00
  0.00000000E+00  0.00000000E+00  0.00000000E+00
  0.00000000E+00  0.00000000E+00  0.00000000E+00
  0.00000000E+00  0.00000000E+00  0.00000000E+00
  0.00000000E+00  0.00000000E+00  0.00000000E+00
  0.00000000E+00  0.00000000E+00  0.00000000E+00
  0.00000000E+00  0.00000000E+00  0.00000000E+00
  0.00000000E+00  0.00000000E+00  0.00000000E+00
  0.00000000E+00  0.00000000E+00  0.00000000E+00
  0.00000000E+00  0.00000000E+00  0.00000000E+00
  0.00000000E+00  0.00000000E+00  0.00000000E+00
  0.00000000E+00  0.00000000E+00  0.00000000E+00
  0.00000000E+00  0.00000000E+00  0.00000000E+00
