   794
 Wannier centres, written by Wannier90 on13Jan2025 at 22:09:26 
X         11.44864748       6.57304281      14.80756237
X         10.72050087       5.31620782      14.34811609
X         10.71529383       6.15035983       0.80118741
X         10.88463641       8.67607001      13.93035921
X          8.08807686       7.52522587      10.99690772
X         10.25954350       8.25982198       2.07656251
X          8.88775773       6.56546923      13.86185231
X         10.89991104       7.32434469      11.51809667
X          3.44438371      14.94918592      14.80930130
X          7.06581615      12.42102493       6.29965906
X          4.25069059      14.47878888      10.36505502
X          6.48161443       4.84410862      13.09200056
X          7.19526124       9.68601394       5.96641973
X          7.26214696       6.83398578       6.52288602
X          0.90227408       7.11176968       7.20429784
X          2.61317670       9.08009218       3.67568826
X          8.86960955      13.01904477       8.34237928
X          6.60788458      15.23033888      11.57661775
X          5.29449048       5.72845611       1.25830486
X          8.64904592       9.88565746       3.48100655
X          9.16031969       1.98232773       8.52311951
X          1.34578843       5.27007738       2.27148565
X          9.97194241       4.13092347       2.33927791
X          1.70206452      12.36721243       6.52214593
X         10.81329692      12.50091572      12.35920631
X          4.52493647       9.46679829       9.80685498
X          8.16738359      12.29276779      10.81222354
X          4.57113580       2.88105366      10.86916172
X          6.14750977       7.60878851      13.88881999
X          6.87143719       7.88918967       3.60532916
X          1.05692167      10.10974177       1.02451058
X          1.87171508       2.89465112      10.19849207
X          1.15494210       7.71404932       1.94627173
X          2.29623462      10.21865097       8.79852830
X          3.10976644       3.40351997       2.09464785
X          3.80835304       7.69429914      13.68523832
X          9.86679846      11.00545955       6.48837923
X          6.71033095      15.10782037       6.19128660
X          7.76557663       4.32117325       0.72332130
X          0.65079571       1.91629185       2.62722295
X          9.77896004       8.61634399       6.52496925
X          4.84818429       5.56425943       3.77451048
X          4.08837961      10.93227551       6.54564016
X          9.82252909       5.62612810       6.75196357
X          3.71428158       1.57990586       9.36838166
X          3.71083498      12.25638542       3.74980696
X          1.75429870       3.70716534       4.17361225
X          4.74735041      13.05840730       5.99144551
X          0.39828399      15.21856151       1.12351715
X          8.12557155      10.33920202       8.41534173
X          0.89564458      13.64311395       3.12128201
X          2.05306654      12.62629026       1.42764739
X          3.46182241      10.21339350       1.36613823
X          6.36569619       0.87064486       3.61115400
X         10.34412650       5.50270374       9.39638091
X          6.08839971       0.74294625       8.83325452
X         10.40990894       0.77304547       6.30622890
X          7.86496222       4.83991817       8.28352215
X          2.29604655      14.79779294       5.62618947
X          7.72581307       9.29126207      12.77059550
X          9.15899426       0.46634913      10.73807858
X          1.99987360       8.72326762      11.59274518
X          9.48461580      12.52932605       3.43838256
X          4.72211027       7.96014090       5.63383846
X          5.77150047      11.68556617       8.42520770
X          5.13675549       0.61103406       1.19288824
X          7.70472406       0.58619364      13.52419069
X         11.54655591       4.85777875      11.64718788
X          3.29942097      10.66825609      13.03644176
X          7.59215068       4.56550538       3.77993878
X          6.89322823      14.06229478      14.69588894
X          8.60375730      15.32968062       8.08597427
X          3.47695254       1.86636486      14.26377080
X         10.09072697       3.20737959       5.04390812
X          3.39977320       5.53623310       6.57306167
X          7.80429567       8.85838238       0.86412050
X          7.62709312       1.66362166       6.18938144
X          5.10810906       2.87277443       0.71888966
X          2.96573325       1.63216070       4.61008824
X         10.71523446       2.45173428      14.30626330
X         10.64970143      13.67781284       5.80265955
X          4.83836476       7.51400838      11.15384182
X          9.93659081      14.38652450      10.32656159
X          4.28566609      15.56460851       4.81128145
X          2.05808756       1.98695973       7.19346292
X          8.80042025       4.85643980      11.86414431
X          5.01839262      10.28562605       4.33961683
X          3.94324468       7.45532048       1.63745263
X          9.03587342       3.14879629      10.50270835
X         11.03592151       5.72929265       4.76830736
X          4.58269099      11.73261805      10.74794374
X          5.80672057      10.44444724       0.50484144
X          6.07720212       8.30117588       8.63504510
X          5.04103379       6.07352210       9.14243410
X         11.21092390       0.76296671       9.33393649
X          8.22561368       6.34066479       2.01685981
X          5.10824874       2.98305124       3.44595647
X          1.50350685       9.79795868       6.36222186
X          6.68694501       4.78834049      11.01648078
X          6.94263450       9.92791306      10.85878677
X          1.68413647      15.12903495      10.15561833
X          5.87001661       4.00735872       5.94935415
X          2.89178927       0.33975100      11.87366372
X         10.06973201      13.63439295      15.02426826
X          3.07474103      12.81940184       8.50074761
X          0.44669935      11.02759759       4.11003512
X          0.47455091       4.35649994       6.82717496
X          1.03573009      11.11116519      10.94778275
X          9.52542204       0.49244412       3.36678789
X          2.69050778       0.04829368       2.40532873
X          1.15022606      15.16672570      12.78741439
X          2.43206260       3.38183982      12.79960623
X          6.67153013      13.97673155       8.58310410
X          8.63297772      14.72325103      12.51072288
X          0.38158301       0.22918660       4.15382889
X          3.45347592       7.70699747       8.79238095
X          9.70671845      11.14938022       0.87888701
X          3.32972584      15.36913620       7.95144234
X          0.70168741       3.31167215       0.73599101
X          7.81063262       1.68054882       1.51041387
X          7.66254351      15.03999795       1.67027736
X          8.60093168       7.80518786       8.42410396
X          9.94402051       0.17670742      14.75707242
X          0.58536963      11.25082462      13.66188929
X          0.14174103       8.08897666       4.23582752
X          5.70710637      12.53162447      13.27046512
X          6.53692268       1.90038758      11.01266501
X          7.15542237      11.87350855       1.37832121
X          0.42966502      14.59656315       7.77270673
X          0.35128365       8.89981310       8.77956076
X          2.08181860       4.94424063       9.33961456
X          3.06478897      13.96691056      12.43589813
X          6.07342663      13.32767810       3.66413358
X          5.16404727      12.39387744       1.24775308
X          8.48141808       6.83612928       2.29958616
X          2.41950283       5.73845646      11.76894913
X          8.57480814       3.10808651      13.33011363
X          5.63381964       3.39411820       8.56207317
X          4.01153515       5.59338758      14.47160165
X          9.32007520      10.15089935      11.12787118
X         10.88943354      11.86357916       9.24085617
X         10.83536085       3.04796359       9.44613651
X          8.71222552      11.99454264      13.52581952
X          2.74345812       6.31029928       4.35832298
X          7.80902458       8.48478091       1.37367758
X          9.30409810       7.42843769       4.58314128
X          9.10141895       5.50389548      11.80770618
X          8.72255491       7.03433387      13.70183325
X          2.18732096      15.86003321       2.30108683
X          4.69705329       1.41642714       6.15820529
X          0.59400740       7.77804626       4.22496781
X         10.17630370       8.78299047       1.73316989
X          7.70792912      12.00739283       1.68676458
X          4.53157069       1.74144006       6.56898716
X          9.51984969      10.71898346       1.08095678
X          6.31027580      14.39124652       9.08467349
X          7.13611056       1.66084413      11.24887124
X         11.07714291       6.02672899       5.18494833
X          7.91207663      10.00706279       8.02297189
X          9.07766073       7.47630503       8.51739554
X          0.51957889      16.01538815       4.00982046
X          0.56349950       3.81666706       0.63255548
X         11.03155858       4.89640467      14.61015858
X         10.09190559      14.01094650      10.69237391
X          5.24924949      12.76849770       1.81074157
X          2.84036826       3.55320754      13.09260742
X          9.88432263      10.15924768      10.63159699
X         11.41987182       3.08092598       9.40370059
X          5.19324956      12.24345806      13.09049726
X          5.26025813       2.55924397       3.79406766
X         11.06285659       8.95846624      14.46089689
X          7.06980751       4.50173591       3.60799022
X          8.13898277      11.76895959      13.80430155
X          6.43088756       0.68652763       3.10711291
X          2.17896511       6.60676823       4.10245190
X          9.91137679       5.71117842       9.56126518
X          6.05525086       3.19762118       8.35320796
X          2.98937179       7.23873013       8.44697140
X          3.21357492      13.08312546       8.06366421
X         11.33788840       9.26718749       9.71536565
X          6.43067627       8.90983201       8.67150702
X          4.31246645       1.43711357       9.42731711
X          3.49689270       6.01703089       6.33661275
X          8.17989888       9.39365537      12.81920544
X          7.18446604      14.81670259       2.05430330
X          7.93494799       5.39487697       8.29906329
X          9.40286315       3.35786491      10.79357042
X          8.72773706       7.57410116       4.15765396
X          1.31180361       9.59413460       1.29500922
X          3.71148932       4.94706830      14.16154205
X          2.49787328       8.48271273      11.87701034
X          2.06049537       5.33023467       8.73485678
X          6.60125468      15.33699586      11.01199547
X          5.91702812       8.04431525      13.91998849
X          0.46336800       1.99332773       3.16304984
X          1.85108526      12.08251971       7.01281050
X         10.20314204       2.49865455      14.41616734
X          9.59626650       8.17823887       6.09910102
X          1.55177455       9.25455716       6.58649085
X          7.21750118       4.46157485       0.78722234
X         10.85804332      11.64760458       8.81610113
X          8.97110003       1.50573175       8.21321533
X          0.77810778      15.04555221      13.34663694
X          7.39770113       9.08506982       6.17047172
X          2.86235230       1.02325828      11.77792752
X          4.70111420       7.50905462       5.28501918
X          7.88262947       1.48237414       0.92593622
X          5.54339274       3.35416813       0.63014805
X          0.38711960       4.51380728      11.35285294
X          8.80747733      12.53329811       8.00552851
X          6.47282883      13.71192964       0.70867600
X          6.81282878      10.21999518      10.31496803
X          1.60608717      15.05733800      10.72135644
X          3.25866781      12.19052921       3.85722545
X          2.65662280       6.45489716      11.79869724
X         10.37469093      12.28040762      12.61854004
X          2.54684186      15.10685415       0.43202507
X         11.25834405       0.12400326       9.50126856
X          1.15844036       7.36222840       7.67367117
X          1.45187761       8.07950826       2.25536526
X          0.74106077       3.91766153       6.89626678
X          8.35840879       2.75544030      13.65284750
X          7.13298952       8.23434999       3.35826109
X          9.50530710       6.03727227       6.57667717
X         10.29371555      15.98857803      14.72454270
X          3.24764857      15.28570237       7.48332185
X          0.99936985      14.04278799       3.56501199
X         11.26604848      10.86212117       4.70522182
X          9.90274478       4.10607281       1.78181845
X          9.89278577       0.97186073       6.49670156
X          6.35465502      14.69691726       5.86325027
X          7.83403367       0.49880448      12.94913799
X          3.36980128      13.43271061      12.28017218
X          3.52266665       2.19715618      14.66638274
X          7.41738341       7.68446031       6.91216530
X          8.45445961      10.21697662       3.01505596
X         10.95640003      13.42148024       6.19177222
X          4.17707872       2.67991452      11.31990321
X          5.50781312       9.93071703       4.48300137
X          5.57939046       5.76547268       9.02918693
X          3.14445130      10.15934126       1.75106319
X          4.81665001      15.29201079       4.83157439
X          1.12869526       4.89221943       2.49810641
X          6.66596981       4.61739118      13.63859764
X          9.36782036       0.84835061       3.70282197
X          2.64267740       1.26563583       4.21384449
X          3.54248858      10.96714600       6.77837096
X          0.31123857      14.05196589       7.83618607
X          8.91516238      14.52649168      12.91810594
X          4.78110363      14.79087455      10.12890022
X          5.48751186       5.28766408       0.84272759
X          7.55246580      12.11422009       6.63881323
X          4.52279355       0.49890887       1.16166990
X          6.33789613       3.93886805       5.96144639
X          2.13125497       9.28752434       3.98046669
X          3.81352192       7.28717774      13.90620167
X          6.40951464      13.63788811       3.61581373
X          2.60962954      12.49537789       1.57840894
X          8.34618524      15.09551373       7.62957833
X          5.70123093      11.85634261       8.94735939
X          0.90958941      10.74006273      11.25823956
X          7.30639054       1.44793217       6.49408413
X          8.59326298      12.63454865      11.12988370
X          8.47011571       7.28448025      11.49133804
X          0.77838546      10.88837357      13.20001898
X          6.58495670       4.74815474      10.36678388
X          1.92412767      10.18814328       8.43163079
X          2.18617793      14.36060269       5.97198115
X          4.70852601      13.45773270       5.61218410
X         10.46790591      13.99481490      14.76743113
X          2.56538098       3.28322423       2.04232619
X          1.96984396       3.31131056      10.70027918
X          1.90951947       1.83194765       7.61672012
X          5.12631839       5.74296550       4.11345135
X          4.42450953      12.05860459      11.29759514
X          3.98539837       7.45491640       1.04282097
X          1.69740844       4.15073781       4.02723872
X          6.24045742      10.51284199      14.61321742
X          9.79769680      11.41707589       6.09441970
X          4.91524126       9.03214826       9.76288291
X         10.45723046       2.78766450       5.00101668
X         -0.03072038      15.00065353       0.79195017
X          9.22378863      12.04947999       3.16337987
X          9.14359315       6.80629071      13.40792278
X          4.29093084       7.65817372      11.38088245
X          9.36015263       0.62963800      11.12994727
X         10.33330461       7.06896890      11.79705900
X          6.06026105       0.18847508       9.14698283
X         10.57366528       9.06359216      14.20553538
X          3.49625168      11.27957610      12.87500618
X          6.35066954       8.02040778      14.25968473
X          1.28686086      13.98456146       2.88693900
X          7.74583829       5.06803833       8.71396379
X          2.28990710       3.03949333      10.50863282
X          6.92787353       0.66218771       3.27676018
X          2.61720331       9.58501909       3.79166825
X          1.40638155       6.78229865       7.49666762
X          8.18635194      12.10911773      11.33259054
X          5.85348359      11.18543683       8.79445115
X          9.63794726       3.81465950       2.14471374
X          8.71184741       7.18764691       8.70896326
X         11.03795035      11.27276916       9.38570771
X          2.79467890       3.11517895      12.51653097
X          8.17055752       9.86489087       3.40636646
X          8.66540415      13.18077951       7.82866077
X          7.50976856       4.09186626       1.07108561
X          0.50272964      10.45506868       4.32469584
X          4.62600896      16.00167010       4.78554438
X          0.71566463       4.64105805      10.99486291
X         10.24715761      14.05109954      10.14435531
X          4.54115635      12.76079007       5.60082702
X          7.64346260      15.33777113       2.26559639
X          3.31248288       0.72685692      11.70356850
X          9.97803378       0.54259366       6.17096141
X          7.37505631      11.70540113       1.98682717
X          1.14683307      15.25155234      10.24195830
X          7.86475682       9.78741520      12.80580131
X          1.27413204       4.01394715       4.48537747
X          5.17598741       8.07921802       5.24914094
X          2.49533856       1.67437356       7.48281218
X          2.83413538       3.45710674       1.48883237
X          3.85153947      10.53375047       6.43063399
X          7.21940330      12.57322022       6.85129488
X          4.50567363      14.26437658       9.86837115
X          3.26416044      12.40756714       8.17681955
X          8.65581980       7.80020041      11.07033194
X         11.14776187       5.22027843      14.04435333
X          3.66458293       5.84489739       6.81457261
X          6.35131478      15.62402362      11.37974899
X          0.56382220      14.73998932       1.18217399
X          9.28533766       2.68560858      10.61396556
X          6.55947296       8.05453751       3.27349176
X         10.68576478       2.99287677      14.62158043
X          1.22924950       7.44679910       2.51223891
X          6.55688554       9.99540684      14.80131127
X          5.44545501       2.90442647       1.15455872
X          6.09269566       3.51397622       5.94103981
X          4.30796699      12.11341051      10.67515972
X          7.44929672      14.03243401      14.69466257
X          9.14432827       8.43267242       6.70358706
X          7.52512027       4.20880966       3.45823921
X         10.43725826       7.58372754      11.60359041
X          4.73098032       5.60259103       4.33224734
X          2.59788405      14.84525296       0.83659199
X          2.39485484      10.56268369       8.28849500
X          3.36440444       1.33496428       4.36768873
X          6.56781435      13.95653896       9.18728119
X          4.56281240       7.57149532      10.69829104
X         10.85118208      13.20849652       5.56805106
X          6.99545553      10.41201352      10.99405736
X          7.89632114       1.34494133       6.64174265
X          8.52094698      14.34281979      12.84335232
X          5.98446409      13.76456932       4.17523473
X          0.99745193       0.15896328       4.08236031
X          0.58062692       4.20298281       6.25797995
X          8.73850790       0.61793174      11.18314954
X          8.14831884       3.02982161      13.00597391
X          9.51741611       5.93665722       7.20062388
X          9.36006799      11.29175689       6.63864436
X          9.87379793       5.40725947       9.11962832
X          5.95705897       0.82253778       9.40098560
X          0.69690397      10.70925782      10.59452102
X          7.54367942      10.33956414       8.43795569
X          0.65406495      15.46210474      13.03562218
X          5.08541996       9.67851485       9.55946614
X          8.69787392       6.16225592       2.22137081
X          9.65729277       8.45804863       2.14653639
X          1.77769893      14.52766213       5.36622157
X          6.96899012       4.49723260      12.96840193
X          7.04911624       4.53318261      10.87752960
X          2.41307622       4.94969942       8.85232230
X          5.51517961       2.65442716       3.14436308
X          5.21903683      10.59058723       4.62994978
X          4.17150806       1.74865512       9.16202270
X          2.21980863      13.11338737       1.48143095
X          1.84105028      12.76125651       6.91835129
X          9.49739686      11.02284234       1.52342639
X          1.13126851       9.69795961       0.75796063
X          9.79998926      13.95816910      14.62172125
X          2.45902576       5.87855436      11.35535595
X          2.05604885       9.01554315      12.05432283
X         11.31606036       5.36976494       5.11471716
X          5.47561327       5.84045463       0.83888699
X          4.49858288       1.30104250       6.84414632
X          9.58605193      12.09734963       3.76429814
X          4.76902084       2.44902439      10.91600882
X         10.27620996      12.77777070      12.15660573
X          9.26225791       1.67997063       8.93654260
X          0.92808933       3.63411992       1.19698499
X          6.63237621      10.72556873      14.69327674
X          9.38102507       4.98156667      11.50579116
X          3.60546003      10.11652488       1.79323991
X          7.44524494       8.42551735       0.76633508
X          2.90784990      10.83901178      12.66835708
X          0.42711789      10.74327199      13.81884949
X         10.14391045       0.99265933       5.83789589
X          3.69850937      11.86151770       4.02460491
X          9.84579515       8.08665349       1.44390288
X          5.02867929       0.87968290       1.57317915
X         10.58012460       3.36207479       5.35551593
X          9.03978224       0.69573956       3.14257037
X          0.08096762      15.00401611       1.40730453
X          0.87377288       5.35521444       2.16961520
X          2.86592268       7.59038919       8.83233992
X         11.36295571       7.79251438       5.15401316
X          9.01032085       7.71860054       9.05054055
X          6.99992982      13.45348566      14.68838225
X          6.90637457      14.57853260       6.35153999
X          1.35717821       9.43332437       5.87499011
X          3.11192630       5.92104744       6.94644350
X          2.23453453       0.32700877       2.43456415
X          8.72615919       7.45633432      10.86855469
X          6.72924998       1.76760082      11.54441225
X          6.76513757       8.45105331       8.16010292
X          3.25561392      15.95246790       7.73879628
X          3.07049450       1.31827681       0.21649228
X          5.69632799      12.25036404      13.69752289
X         11.23217166       4.43376044      11.33868244
X          1.06306946       1.82588342       2.99270241
X          2.35199925       9.30288586       3.25634037
X          3.14565601       0.79872287      12.16946552
X          4.85494987      12.83274608       1.52983431
X         10.83548225       2.67911258       9.76254040
X          0.59976427      14.99951148      12.85732029
X          2.61036851       6.64110799       4.61920090
X          7.00536539       9.22408587       6.23833535
X          5.25281499       6.16261799       8.72396134
X         10.52754299       3.32278808       4.81115855
X          3.70455875      12.83896732       8.60610530
X          1.42512807       3.86899154       3.74424606
X          3.46185573       7.90870857       1.52611506
X          7.65441969      14.71527229       2.12827571
X          1.32204157      13.64440837       3.33680615
X         10.30544258       7.49408818      11.16903404
X          1.26304514      12.43415409       6.89560876
X          8.38402680      11.52286307      13.14548907
X          2.97022337      13.43865859      12.58802936
X          8.18624893       8.26607772       0.78814785
X          8.04405972       0.09937311      13.48957407
X         11.09830935       9.02631683       9.31634205
X          1.94399213      14.71045784       5.93064043
X         10.56527682       2.44293372      14.74469962
X          5.41783895      10.44160186       4.13651578
X          4.99166083       5.85561386       0.73675203
X          1.35863170      14.76164162      10.25844157
X          7.43394226       1.85768634       6.66752974
X          9.62537873      15.84564732      14.60808144
X          0.27532486       5.98466484       4.27027360
X          4.75514297      14.15677882      10.21075507
X          2.56131918       3.76288040      12.38692435
X          9.06555145       0.35379622       3.56410676
X         10.44095169       8.30878586      14.57231849
X          4.98557932       0.27089660       1.52006239
X          8.46002803      15.80718425       7.74317999
X          8.41510262       9.44878132       3.12360794
X          9.34456012      12.94020394       7.98222260
X         10.90528720       0.75706121       9.74005480
X          7.36218750       5.09041885       8.35694377
X          3.17127003       1.87399511      14.60447060
X          5.05781600       1.72293121       6.68963982
X         11.20404162      13.79422127       5.66995902
X          7.80762546       9.29797711      13.34814883
X          5.24573078       5.16082252       4.04333233
X          2.24542700       9.87823742       8.31969528
X          6.01492894      13.73315664       3.41921704
X          8.78580928       3.11403181      11.04130931
X          2.35455960      12.73411029       1.09019220
X          7.25050844       1.55231097       1.44732241
X          3.53682508      10.72583731       1.72499992
X          4.77061736       2.89171818      11.34179947
X          8.22313366       0.76709439      13.46326623
X          8.50308891      11.98069042      11.08017655
X          0.48859861      14.55955933       8.32751656
X          4.24556126      13.17030806       5.96012933
X          3.87974861       1.29637459       8.81248454
X          6.11540279       3.98679742       5.37902807
X          2.11319477       2.65359683      10.78007699
X          2.87661690      15.32099491       7.74010633
X          3.37688691       7.70363889      13.87152445
X          4.70986154      12.27436369      10.60460537
X          9.67361309       9.50236752      10.76360826
X         10.01495161      10.66919811       1.22213616
X          3.02532387       1.66914008       4.13879991
X          0.94347788       4.34305274       6.76634885
X          7.58821682       4.69695413       3.23500941
X          3.89029548      11.03945989       6.11572315
X          9.11445687      12.30460451       3.65628615
X          1.96194907       4.64218007       8.71168805
X          8.82706064      11.57840855      13.69438547
X          6.44535471       0.59996305       9.20653696
X          2.13006136       2.26561849       7.63053398
X         11.26329569      11.76046904       9.01668089
X          8.10281583      15.30449184       7.96795235
X          0.88733698       2.49360646       2.80089476
X          4.66227155      12.34333463       1.79561444
X          5.78305738       3.02993508       9.01189224
X          6.22668793       8.71495249       8.23137018
X          3.48291340       5.04098589      14.53834876
X          0.23719153      10.68680880       3.84648174
X          3.42466363      13.57651217      12.78448569
X          6.54022549       8.32356586       3.83459243
X          2.78279153       7.91596643       8.41237601
X          9.97348129      11.53550808       6.69590737
X         10.49800556      12.63588832      12.78468189
X          1.07234627       5.66859183       2.68563490
X          3.46585440      11.94194369       3.32195618
X          5.05820717       7.63587337       5.62134540
X          1.14426441       9.46960769       6.46661782
X          7.70222769       4.57275309       1.22233131
X          9.97691076       0.36471453      14.28707915
X          1.39894140       7.41909595       7.33789224
X          6.51592167       1.11869213       2.99927897
X          5.39865498       6.44177702       9.13088828
X          3.01962408      15.37396885       0.54625526
X          8.90688164      14.16370095      12.31909839
X          0.99722384      14.35488972       7.79495463
X          0.52979506       8.41863091       4.49097312
X          8.73224595       1.86484489       8.67634718
X         11.38149697      11.15898101      13.88577501
X          4.54605487      15.62531419       4.44338144
X          5.61439514       2.69198745       0.81900468
X          6.89790850      15.71321857      11.45007236
X          2.14148865       6.07506728      11.62447745
X         10.03418879       5.13957873       9.70152602
X          0.61908552       9.71644086       0.98006813
X         11.04885943       8.66337726       9.66463250
X         10.62955527       6.88460317      15.01343969
X          2.95237339      11.00143471      13.08527676
X          1.23477152       3.57274515       0.54579748
X          2.82898709       6.72649040       4.24548599
X          2.31322253       9.09895535      11.71912099
X          1.25358207      10.66824402      11.02756486
X          5.70870542       7.60914050      14.31048382
X          6.49247843      14.75005041       6.44996817
X         10.93717763       3.40587631       9.85921030
X          5.58805308       3.13752335       3.67431241
X          7.15440516      12.38195238       1.89026076
X          6.57936318       4.33780001      13.07356327
X          8.72670303       6.61268569       1.66893402
X          6.96771903       2.31482463      11.43670959
X          6.07247624      13.73765734       9.04208419
X          0.53880961      15.74765755       4.49023513
X          7.81102496       1.13522827       1.59477622
X          6.00330097       3.72760713       8.82720793
X          9.91221647       6.23847878       6.66772029
X          3.44642369       7.50660624      13.26573206
X          7.50258111      12.80862902       6.60875438
X          9.75063402       8.00941556       6.44619880
X          6.68171821       4.33369461      10.93929315
X          1.66697170       7.73258582       2.08412241
X          9.34120789       5.09266345      12.04582208
X          5.36081650      11.64122328       8.74966340
X          7.35988186      10.24639532      10.84432767
X          9.25766134       0.98405900      10.71936881
X          6.88337950       9.20426353       5.60794923
X          7.94817772      10.65049339       7.98918477
X          9.93880330       9.94016348      11.10513814
X          9.43418093       4.33685875       2.17817065
X         10.48159524      14.45360112      10.40490409
X          2.64481685       0.26382253       1.90638738
X         10.76049896       0.60908086       9.36310113
X          5.87488100      12.08634594      13.28480746
X          9.27052202       7.06525789      14.11950572
X          2.47886798       3.66055610       2.11717801
X         10.20129563      13.33397022      14.52447916
X          8.68237198       2.53670156      13.36840919
X          3.74449738       7.21856810       1.13333694
X         11.11793588       5.78159570      14.65952573
X          3.78493499       4.66867890      14.54732877
X          4.47463815       7.17495427      11.13999381
X          8.94475939       7.62703460       3.77813984
X          7.64844807       7.62499055       6.74001295
X          8.87653330       7.94642019       4.00582213
X          7.61967215       7.44314204       7.02782035
X          4.75715312       9.09612917       9.42762377
X          9.35138169       7.42585685       0.56915705
X          9.35557401       7.42194713       0.56783091
X          9.36567168       7.41402585       0.57232700
Fe         1.42164840       3.77200120       2.53674020
Fe         4.69927060       1.23023670       4.64254630
Fe         1.35004470       3.36395330       8.11433420
Fe         5.42569280       1.93174130       9.99399910
Fe         1.94012480       4.58233700      11.07741890
Fe         3.26086800       3.60465180      14.53444190
Fe         2.36252210       9.01799390       1.95410190
Fe         4.03573390       6.37059070       5.13882540
Fe         1.58856100       8.73147530       7.87320990
Fe         4.86159600       7.78198710       9.46210840
Fe         1.78627840      10.35589370      12.31816210
Fe         4.73311560       6.88858410      14.74550090
Fe         1.70318710      14.26607030       1.63585830
Fe         4.41390490      11.56450530       5.07312250
Fe         2.40996520      14.07888000       7.22917580
Fe         4.92040440      12.87727300       9.49102250
Fe         2.29135380      15.08196000      11.96089170
Fe         6.69321820      12.02675830      14.58306870
Fe         5.87103430       1.84854960       1.97732980
Fe        10.39058900       1.44056240       4.57997690
Fe         6.25590790       2.60656070       6.98242700
Fe         9.92805080       1.66693950       9.90120300
Fe         7.53603640       3.75617440      11.95847020
Fe         9.16683910       1.66880350      14.15651970
Fe         8.31097380       8.20572400       2.90716830
Fe        10.17601690       7.15013140       5.72587390
Fe         7.80120630       8.44279100       7.26891300
Fe         9.71045840       8.13773380      10.27432550
Fe         8.07930970      10.76781600      11.85570450
Fe         9.35508680       7.42317560       0.56983260
Fe         6.36937600      13.61625930       2.11271790
Fe        10.39933430      11.92572860       4.86897790
Fe         7.58325650      14.00947440       7.35263610
Fe        10.91478030      12.75409700       7.74671980
Fe         8.50592530      14.87065010      14.29332250
Fe        10.22656120      12.00888980      13.95113190
O          1.61690120       3.93888760       4.26713490
O          0.72717280       2.03857980       2.84995850
O          2.97357700       3.39984640       1.92911660
O          5.33198680       2.87240270       3.52830070
O          0.50374140      16.09603100       4.28720380
O          1.06068060       5.43793550       2.34277190
O          0.84160430       3.56622130       0.73879370
O          2.91322700       1.53294980       4.36386050
O         11.03278250       3.10489730       9.60930930
O          2.13076850       1.86645240       7.40602320
O          4.67518040       1.53234070       6.58601410
O          5.84658690       3.37716330       8.68391080
O         11.15044310       0.50094470       9.42133890
O          2.15166550       4.98357440       8.93876020
O          0.65289850       4.27031340       6.65825220
O          3.90003410       1.49569180       9.18206810
O         10.98820890       5.21482240      14.29624600
O          2.01932670       2.87650310      10.47218850
O          4.54666340       2.84219370      11.21825700
O          3.78063330       5.24446170      14.38884080
O          9.94161090      16.17422990      14.71952150
O          2.43221050       6.14002360      11.68650240
O         11.48797470       4.59109420      11.61237790
O          2.63519370       3.46044740      12.71755460
O          2.51236340       9.33051150       3.77303530
O          1.27026490       7.66908250       2.16072740
O          3.75622790       7.62524400       1.56204200
O          4.93067050       7.86962090       5.51057740
O         11.23609800       5.73783360       4.93047650
O          3.52807690      10.32629490       1.60483690
O          1.02356940       9.84304950       0.98137600
O          2.51615770       6.58765680       4.28862830
O         11.28546830       8.92509320       9.46873890
O          1.12008240       7.06466010       7.36353400
O          3.42022580       5.76233730       6.72554780
O          4.73658370       9.50046560       9.69732290
O         10.08575990       5.45839860       9.44417940
O          2.24601740      10.27078820       8.55973780
O          1.37712640       9.55603340       6.26210180
O          3.03566830       7.61518120       8.65387190
O         10.79076830       8.81199690      14.16407490
O          2.20864430       8.74297310      11.73643560
O          4.58927790       7.44877060      11.20200330
O          6.07642230       7.83160630      14.02264420
O         11.27160630       6.39178030      15.00586850
O          3.28928430      10.94521620      13.02345330
O          0.94527720      10.87149810      10.86764170
O          3.51972150       7.63293130      13.66657800
O          1.09826750      13.75480410       3.27128180
O          2.30528720      12.63088250       1.33030250
O          4.91526900      12.56940420       1.59132950
O          4.53641920      13.17629610       5.88104560
O          0.34662330      10.74487240       4.07276740
O          2.47966630       0.08288210       2.22801050
O          0.15744350      15.07260250       1.16037410
O          3.44420520      12.12578640       3.69205690
O          0.53422370      14.45447620       7.93237360
O          1.63231850      12.36653470       6.76908290
O          3.84959050      10.76189290       6.55829100
O          4.46864050      14.50529740      10.21161640
O         11.01512730      11.61097220       9.17121990
O          3.25084400      15.54400380       7.77896930
O          2.07814680      14.66601600       5.60822340
O          3.30683310      12.78614140       8.37965010
O          0.75245630      15.17959580      12.99179260
O          3.20906900      13.58837560      12.57225280
O          4.46938050      11.92891660      10.90928240
O          2.83224950      15.00944610       0.39592850
O          0.52252920      11.05649210      13.54964320
O          3.08271440       0.72009220      11.90614710
O          1.47559710      15.03864590      10.29330810
O          5.56016030      12.31278190      13.23519740
O          7.47208070       4.48667680       3.55759420
O          6.55931240       0.78664910       3.35006870
O          7.72415800       1.49047450       1.37823720
O         10.33947060       3.24085330       5.06488680
O          4.50846940      15.53682830       4.68792220
O          7.58468340       4.33546910       0.91821620
O          5.35972090       3.00009470       0.73456030
O          9.25775860       0.54907010       3.41967310
O          7.72741130       5.05941280       8.37710900
O          7.60791480       1.53278480       6.41313330
O         10.16496810       0.76719490       6.27919840
O          9.07300920       3.09234020      10.75181450
O          6.19816110       0.56253570       9.04971780
O          9.68051270       5.84023080       6.82505630
O          6.10184770       3.96785550       5.78951160
O          8.92719540       1.81657890       8.48670090
O          6.58366720       4.67030350      13.21437290
O          6.83663370       1.91118230      11.32492990
O          9.11482380       0.56538970      11.01229530
O         10.64242670       2.60435200      14.51274010
O          3.42394390       1.78382300      14.52093720
O          9.15829870       5.09859100      11.82311570
O          6.67344900       4.69593310      10.75389330
O          8.40746540       2.97468610      13.33238500
O          6.64520670       8.07862880       3.51001530
O          8.51834060       6.46602810       2.06142230
O          9.75836400       4.08077950       2.17063310
O          0.35254180       8.06514280       4.38549630
O          5.02795770       5.50960310       3.93992370
O          8.41883310       9.93560830       3.33507210
O          7.77975430       8.55029000       0.95764520
O          9.03084870       7.55209100       4.29224220
O          6.34088240       8.57867080       8.42250900
O          7.34955120       7.00964880       6.62108640
O          9.55594620       8.51085090       6.54876520
O          9.70069910       9.98991220      10.94062340
O          5.29228780       6.06007780       8.96200460
O          7.90220870      10.31444420       8.25145610
O          7.10334120       9.40631530       5.93019760
O          8.82875730       7.55386990       8.67512360
O          7.91432180       9.33872830      12.94958960
O          8.30576650       7.48457790      11.15512100
O         10.64103730       7.32629850      11.62139960
O         10.06674270       8.43381400       1.93839330
O          5.38699630       5.65988950       1.03033680
O          8.32447460      12.33135230      10.97616670
O          6.92979980      10.13377250      10.69221110
O          8.94566400       6.83422240      13.79163420
O          6.12880980      13.58368630       3.84682040
O          7.36542250      11.93890710       1.72450180
O          9.68435280      10.89399430       1.18772460
O         10.87555510      13.57756950       5.82983680
O          5.33231110      10.25950720       4.30050650
O          7.60017380      15.00028250       2.02578120
O          4.90650200       0.44263200       1.31999980
O          9.31001470      12.33599360       3.45693640
O          6.44115710      14.00842660       8.97908880
O          7.25542540      12.40053870       6.50235290
O          9.75428960      11.22269700       6.50808260
O         10.16616190      14.22323800      10.35682190
O          5.71299520      11.53859740       8.63152450
O          8.44488230      15.44454000       7.93990710
O          6.58036470      14.88692740       6.16434700
O          8.93394620      12.92379950       8.12856560
O          7.01962760      13.88076210      14.77045370
O          8.73116850      14.44623800      12.54596720
O         10.57977950      12.58167760      12.34456210
O         10.14941050      13.73812450      14.80432480
O          6.36336400      10.33776450      14.83429020
O          7.87802040       0.48798950      13.37063500
O          6.60089180      15.41951140      11.40046170
O          8.45127130      11.71398240      13.53195510
Si         0.22511340       4.28941800       5.11973710
Si         1.78831700       0.94032040       3.41917340
Si        10.20349900       4.32688200      10.62481370
Si         3.49262520       1.05072470       7.65254800
Si        10.58240800       3.72368850       0.81293010
Si         3.05947070       2.26567990      11.62791940
Si         1.16048260       9.50112930       4.65509220
Si         1.11351840       6.69282590       3.49581980
Si        11.11805220      10.42105480      10.21372610
Si         2.45481280       6.23064780       7.92898160
Si        10.82730910       9.66922670       0.83960210
Si         3.22623290       7.50900690      12.07746280
Si         0.77736920      14.50947910       4.65658660
Si         3.52196560      11.85772100       2.08972080
Si        11.46835550      15.04385030       9.84537530
Si         2.75976130      11.43621040       7.56633340
Si        11.17980010      15.05778790      14.75933280
Si         4.10507690      12.27861540      12.47109190
Si         5.99757080       4.23553850       4.21184200
Si         7.94445210       0.34288360       2.57217400
Si         6.33936680       4.87055000       9.18458670
Si         8.84209650       0.80669900       7.16106940
Si         6.63374790       4.56968770      14.82542810
Si         7.64856480       0.53211380      11.73103660
Si         6.01949970       8.86720630       4.81607550
Si         8.32306140       4.85801280       2.24872280
Si         6.31191210      10.10804880       9.17744480
Si         9.05406150       5.95323380       8.30613320
Si         7.15919290       8.99524100      14.34096940
Si         9.26626130       6.66189910      12.23175990
Si         5.44168420      14.32725720       5.14481290
Si         8.65066000      11.28362050       2.45159180
Si         5.91306640      15.22795650       9.93748810
Si         8.39407500      11.55742630       7.32064560
Si         3.36428660       0.34414680       0.83453330
Si         9.40693090      13.42431000      11.51693460
