   934
 Wannier centres, written by Wannier90 on16Jan2025 at 20:30:50 
X          7.53358554       6.83320334       6.83120331
X         11.07602837       5.31455634      14.06625812
X         10.93846269       6.25849330       0.65656655
X          7.03961460       7.03662033       6.67920914
X          9.54744453       8.70877074       6.29501793
X          8.16737144       7.73358413      11.15971366
X          4.04002314       7.68909118       1.66384263
X          4.81137095       9.53605090       9.99285836
X          5.71426982      10.21589199       0.56454843
X          4.18768052      14.48925552      10.28880260
X          8.92408134      12.96070135       8.40396877
X          3.09413179       3.68491217       2.03439286
X          3.47670555      10.75012544      13.11363962
X          3.59569453       5.35459236      14.15714002
X         10.81139770      12.74318467      12.43419360
X          8.66337821       3.14858928      13.28731291
X          6.97772568      12.40464956       6.40684213
X         10.88563278       7.45980322      11.60045234
X          5.00508726       5.59562019       3.67517827
X          3.38356898      15.01802478      14.69177829
X          1.81761095       4.14818256       4.31227710
X          8.83059204       7.62893641       4.52559236
X          8.45393574      12.26438651      10.72246156
X          4.46055434       3.10789841      11.09722510
X          0.85880141       7.05945948       7.49058047
X          2.10795020      14.96138730       5.58279853
X          2.98466859       3.06889617       1.98959936
X          6.77980486      14.06523966      14.69321944
X          3.99010354      10.53626469       6.65285423
X          6.15399821       0.61339245       8.76516416
X          2.67376784       9.12135300       3.89557297
X          1.07575616       5.48228913       2.05656762
X          4.58764310      11.66142757      10.85472991
X          9.75752959      11.38068099       6.20892340
X          1.40497163       7.48743076       1.94647424
X          9.73255534       8.48271599       6.81080128
X          8.13401154       9.17592855      12.86860850
X          9.33158161       0.70082375      11.17962655
X          1.75391493       2.74001031      10.49060394
X          4.83083498       7.36332015      11.26620758
X          2.06519526      12.58352429       1.20410487
X          6.52701663       8.08031276       3.24969183
X          5.42125702       2.88039615       0.47110791
X          8.66567923       1.80784639       8.65077280
X          5.60061127      11.57155370       8.37333228
X          3.65610543      10.21906653       1.38884199
X          9.04218577       7.24249609       4.18667434
X          6.30359786       0.77780518       3.54272631
X         11.43390273       4.44884345      11.85475949
X         -0.03524250      15.07688919       1.37266202
X          1.94008102       8.68783064      11.87569096
X          4.29065198      13.32088878       5.96406922
X          2.42434817      10.18664174       8.74959518
X          6.76529879       4.98582539      10.77123818
X          3.47558141      12.42523093       3.59775530
X          6.54181568      15.15570687       6.24550940
X          5.87938294      13.38819397       3.91389683
X         10.50543066       8.83841306      14.24326753
X          6.71011563      10.12580229      10.88467586
X          8.68638581       9.95060030       3.46897884
X          2.74752219       1.65755486       4.54831954
X          1.01791425      15.17110082      12.79872668
X          9.95316327       5.72714726       6.84212526
X          5.65149087       5.77709480       1.11596779
X         11.27055449       0.58634637       9.17045796
X          4.33525502      15.42368113       4.90900743
X          7.24216695       9.66176829       5.99076791
X          1.08265483      13.46669002       3.32797621
X          9.45479407      10.14360435      11.08872697
X         10.38889265       0.66172188       6.38872938
X         10.11687560       3.33254019       5.21241568
X          5.02698272       0.19190812       1.41234977
X          5.33225256      10.30425353       4.02799460
X          6.36423551       4.79599834      13.09216852
X          3.67903239       1.58786464       9.37979506
X          2.96129922       7.56348233       8.91955446
X          7.84925439      14.88819444       2.09122806
X          8.73093662      15.35801321       7.94664261
X          1.71391604      12.32654647       6.48795238
X          6.58811806      13.93440314       8.70214400
X          1.91914528       1.68881939       7.39787684
X          7.59347394       0.58564865      13.35767202
X          0.63226767      11.13312737      13.82216644
X          6.59073596      15.22143441      11.57482232
X          0.61614291       1.93737879       2.60626624
X         10.82317744       2.50974582      14.32635706
X          3.54076982      15.47175875       7.78957611
X          3.41165313       7.87095776      13.73338443
X          0.82532651      14.51657116       7.80270170
X          6.00614961       7.70678763      13.79499101
X          1.19690823      11.03635221      10.88863009
X          9.46046077      12.42381596       3.73298262
X          3.11756110      13.89933947      12.44975087
X          2.38259473       3.34274113      12.76092897
X          0.98263954      10.11390718       1.01398581
X         10.65525234      13.73839327       5.77155756
X          3.56230296       5.53853489       6.58167247
X          7.76199358       1.48775218       1.04857656
X         10.10920071      13.64308220      15.07511088
X          8.91598181       4.89860526      11.86639083
X          3.61811670      12.89719325       8.45602590
X          5.94731968       4.22526869       5.81092188
X          3.17555859       1.60928373      14.48719371
X          0.54233670      10.65954229       3.85170405
X          0.57686832       0.16620129       4.31081346
X          1.65129762      15.07515416      10.58511261
X          1.09558521       3.57272807       0.54305193
X          8.29084673      11.98667685      13.49897797
X          4.64139432       7.96918259       5.46850510
X          5.69314232      12.22749554      12.98289775
X          5.56509497       3.38896190       8.67486435
X          8.41282808      11.50724580      13.78083133
X          7.81183437       1.67459566       6.24209491
X          8.66233836      14.70802774      12.39338786
X          6.96384555       2.23513256      11.39675899
X          2.98069237       0.39739812      11.94732996
X          2.64971700       6.85773203       4.39256651
X          3.60244666       7.34028809       1.64660753
X          4.51818972       9.54607178       9.53481577
X          0.73360816       4.56601209       6.65784681
X          9.96755791       4.17156221       2.32536303
X         10.18693244       8.14803958       1.88703528
X          5.07877088       5.86816601       8.89753468
X          7.23171680      12.19903129       1.86868760
X          5.11313459       3.08569640       3.47030584
X          0.28373482       8.83362047       8.92879205
X          4.65779633      12.74402190       1.53591954
X          4.10351871       5.18639595      14.31138295
X          2.21637884       4.99178022       9.26324474
X         11.04492972      11.84359482       8.92845743
X          7.74615335       4.26996034       0.72158134
X          1.47483121       9.86173630       6.29938541
X          8.72876429       3.07757109      10.92677991
X         11.16609075       3.14987774       9.31938415
X          8.12130021      10.37695807       8.42854272
X         10.34580073       5.50761417       9.40862666
X          9.54483666       0.57976642       3.58485645
X          2.18489607       5.77649565      11.53083759
X          0.26983078       8.16514153       4.15822629
X          2.53966024      16.12209563       2.59075484
X          4.66830906       1.43319724       6.25718507
X          9.91863150       0.50571712      14.47429697
X          7.88206480       4.82902047       8.46392570
X          6.01573813       8.34359176       8.49618445
X         11.09787289       5.62976464       4.71766998
X          7.79959247       8.51584454       1.37305502
X          8.57015693       7.77872948       8.34612148
X          7.60065351       4.60932534       3.75954827
X         11.19020736       2.97171445       9.82799030
X          4.58659951       1.81523590       6.62727520
X         11.65401960      10.63291614      14.12063699
X          8.73332505       6.85413658      13.88816348
X         10.16693368      14.05903343      10.14060019
X          6.24512238       8.96165549       8.39699900
X         10.11167033      16.06219956      14.46154285
X          9.09243330       7.37914400       8.50791023
X          7.38945854      13.93512326      14.73682548
X          9.32015469       7.71540657       4.27222573
X          0.28113559      14.33700643       7.75533226
X          2.70646314       6.13054180      11.51791341
X          9.65851436      11.13531973       0.80468244
X         10.54106799       7.01247900      11.53720506
X          5.45533410      12.61093285      13.22806858
X          8.44072390       6.83975549       2.33413167
X          8.10473282       3.06909344      12.87975656
X         11.30008687       7.85290859       5.08502028
X          3.50232824       7.90762157       1.43577585
X          2.72993327       1.19636677       4.29528145
X          8.27946304       7.22242291      10.98984390
X          0.98318633       7.73290243       2.17670944
X          5.25872586      12.82813165       1.79622110
X          4.72573062       2.79548897      11.45654597
X          7.99519385       0.22176301      13.52524228
X          5.24266506       5.42718759       1.16945973
X          7.28055696       1.60376117       6.44947503
X          9.52227239      10.65259140       1.14570070
X          8.07318579      12.47938318      11.00772268
X          1.06907700       9.54334746       6.10657791
X          6.00282644       3.27623354       8.38155602
X          9.64851522       9.67433926      10.75579468
X          3.65226990       1.71947920      14.32654370
X          6.84332257       0.97251338       3.39389026
X          6.20319631       3.76270272       6.03741170
X          7.18337252      11.83871406       1.34741292
X         10.16516398      13.50740207      14.54041692
X          2.64924511      12.60281261       1.20893194
X          0.15020535      11.02681173       4.09935277
X          7.54383914      15.06530918       1.70512909
X          8.22155311       3.05029711      13.57676473
X          6.70025046      10.10279850      14.82567545
X          6.42557995       7.81501964      14.19596608
X          8.58742172      14.38119647      12.86611667
X          1.99620808      10.46573692       8.58322405
X         10.97628269       6.05620997       5.15468021
X          6.48330049       0.48757110       9.19950996
X          0.56280553      14.93729739       1.24136570
X          5.26240859       2.62498992       3.76239536
X          9.89544494       0.54274471       6.24478950
X          3.31608493       7.74819130       8.58072288
X          2.17736485       2.98581843      10.23236752
X          9.07159758       0.82089699       3.39174707
X          8.68477468       6.15103246       2.21929192
X          3.30640891       7.37669057      13.58257100
X          0.73481294       4.06155980       6.90355823
X          1.56257785      14.95169356      10.01716649
X          7.00175741       9.85335435      10.53834243
X          6.30579603      14.39534401       9.04079360
X          2.45268481       6.56497488       3.93919915
X          6.72899686       9.37315368       5.93401790
X          0.61144379       3.30386408       0.71294916
X          1.59311206       3.65693950       4.36700520
X          9.88077252      11.43424671       6.75000758
X          9.16139199       3.40630640      10.54208591
X          3.17324137      13.30601925      12.34494054
X          6.16478355      13.66035152       3.34192831
X          2.97736877      15.16930042       7.55949580
X          3.23098632      12.01337875       3.86423981
X         11.22266957       4.41895104      11.31522804
X          2.83042351      10.75902106      12.81834878
X          4.90815896       5.18185535       4.01318806
X          7.12820345       1.64477885      11.24610736
X          2.09036061       2.19925201       7.51151050
X          9.06238243       2.05315350       8.34656196
X          6.37687284       4.63458960      10.78856411
X          4.55909319       0.47213558       1.45119426
X          3.28329408      12.43537785       8.13681821
X          5.05367327       3.08657654       0.80822881
X          8.15829565      10.04153336       3.44416507
X          4.56093210      15.88213450       4.65663857
X          7.46607115       7.04587935       6.32391540
X         10.90308686      13.31154589       5.60178125
X          7.93188412       9.43491409      13.33270029
X         10.73790538      11.54585063       9.33333220
X          3.88567660       1.64103160       8.83778244
X         11.04845025       6.72649932      14.80960560
X          9.25720863       0.90932802      10.60438568
X          4.99072806      10.54905465       4.56408663
X          4.06452928      11.04792113       6.19129858
X          1.32082733      13.92205550       3.53034839
X          2.62189023       3.74977790      12.41148668
X          4.39731628       7.71236487      11.41012367
X          0.62550471      10.99566268      10.87728609
X          5.19926338       6.47022346       9.12487619
X          2.16013673      15.95480484       2.29905807
X          0.61215997       9.72213179       1.03674140
X          4.63978533      14.74530175       9.94794043
X          9.48015879      12.21488397       3.17805507
X          8.31101881      15.54318186       8.18542779
X          0.84980850       5.20707827       2.44612170
X          7.80760696       1.12374898       1.57381308
X          1.32651792      12.41753634       6.88593179
X         11.25887237       0.59941612       9.68109929
X          2.51803840       8.49937193      11.92580549
X          7.43064094       8.46431692       0.75378588
X          4.15403468      11.95109613      11.00694437
X          0.44521755      15.15066762      12.90383600
X          9.40459014       4.98971995      11.52061687
X          0.55655939       2.10555744       3.12081320
X          9.20896295      12.97750241       7.93316162
X          3.10893712      15.09131730       0.63330233
X          3.37636714       0.82440226      11.84186357
X          3.03979432       5.75553762       6.82541495
X          7.53083429      10.33399763       8.42536571
X         10.25332267      12.82037631      12.18772875
X          9.88648608      14.32751145      10.46250795
X          9.53275544       5.94138720       7.22100471
X          7.53793146      12.39788392       6.33494886
X          6.31953814      15.59156070      11.31733537
X          2.66737790       0.26455314       1.92172210
X          9.64984934       3.81925205       2.18370334
X         11.34687040       9.24945741       9.72846862
X         11.14075590       4.91309579      14.55537412
X          1.96844860       5.28546008       8.81958371
X          2.12394617       9.28038400       3.96069396
X          7.54222235       4.20653725       3.49109393
X          1.00904051       0.10180585       3.96294958
X          6.67947820      14.81435384       5.85169466
X          5.70444434      11.13019861       8.77837267
X         10.02765480       5.15271341       9.71225041
X          4.74640705      13.43621090       5.60775293
X          5.18966892       8.03596488       5.19887511
X          2.23626650      14.47375074       5.45901389
X         10.65684174       3.32657567       5.31055834
X          2.11341041      14.47884537       6.12460378
X          3.68920261      10.46639593       1.90191532
X          6.81123861       4.84565727      13.41547047
X          7.41657172       5.10200582       8.62966468
X         11.15855047       9.09138586       9.25191881
X          6.65167166       7.86157761       3.72713667
X          5.59192951       3.35533935       0.73552989
X          1.42739106       6.81696646       7.55791766
X         10.16373007       2.38724487      14.43762174
X          3.22817845      11.22229139      13.18965662
X          4.59783985      12.09049016      11.25631141
X          6.37946879      13.50320600       3.96088620
X          4.78333982       5.79141075       4.31728953
X          9.83751383       8.20746984       1.51257939
X          3.11109761      12.68873035       8.57930377
X          7.20818294       4.44065378       0.78793066
X          5.12437474       7.93194596       5.73982753
X          2.86871647       6.34292667       4.49112607
X          6.82351799      10.33481771      10.35100166
X          0.86676403      10.65333924      10.54399030
X          2.35268317       6.53483594      11.66197572
X          6.72693721       4.60810115      10.35660525
X          6.22206290      10.19015469      14.57868974
X          8.96989712       1.47553531       8.22679501
X         10.48386160      13.97956862      14.79817516
X          3.22461889      15.92105055       7.60548187
X          8.50190647       7.33779786      11.52292214
X          4.75695145      13.08297123       6.06783747
X          9.03465532      12.42668406       3.29722731
X         10.97029360       9.05546334      14.47312355
X         10.57017663      12.31921823      12.18456856
X          2.54690344       9.62034390       3.82096287
X          6.73235507       1.73708780      11.58116793
X          3.86509491       5.55322850      14.69529626
X         10.46832085      14.48027565      10.32869375
X          6.52793577       8.40784554       3.77653188
X          1.13779407       5.72391740       2.66883721
X          3.47548029      11.93652996       3.31111292
X          2.99584339       1.01214693      12.12223269
X          4.85652039      15.36668081       4.84849577
X         11.19880435      13.81732613       5.68367758
X          8.17244329      15.07244287       7.71964836
X          1.42668242       9.29606105       6.61315796
X          6.02001287      11.58021865       8.70194958
X          5.18294056      12.12761969      13.19091792
X          4.30451161       7.20842580      11.23716111
X          5.51470672       5.80753439       9.25308098
X          2.26464983       8.70128758      11.45581745
X          6.48881157       4.44906202      13.55417691
X          5.12901005       9.59809951       9.50104272
X          3.70224753      11.01403463       6.86698218
X          7.40293021      12.12279134       6.78622744
X          3.50268352       5.91099233       7.05360104
X          7.63028253       5.06970260       8.12292531
X          4.74688677      14.54764245      10.42915528
X          6.22253106      14.69022960       6.08775736
X          2.73802125      15.41020768       0.39687691
X          7.87489640       9.76872543      12.65925204
X          7.52563065       4.12845892       1.14343126
X          0.58550380      10.66493483       4.37279841
X          9.92676824      10.20578925      10.68379036
X          1.24089811       4.09280290       4.38007658
X         11.44417821       4.88527482      11.56470059
X          1.33058794       7.46325143       2.54650529
X          2.38989030       1.70353778       7.68120116
X         11.08294135      11.26499910       9.11016779
X          1.01783672       1.75841552       2.98536243
X          3.65463069       7.65884450      13.27780041
X          9.47093927       5.71265682       6.70575483
X          7.88493122       1.66038153       1.54897177
X          0.56051994       3.83046779       0.65402950
X          3.89044598       1.15365244       9.04297823
X          2.96825547       7.23035431       8.46695432
X          9.20478535       6.74683827      14.04445142
X          5.32590220       9.85206239       4.40160347
X          2.41408601      12.42809694       1.67536238
X          2.44252810      10.51009554       8.25267422
X          0.34763019      16.11913822       4.04617398
X         10.18222480      16.05564748      14.97045728
X          9.95061108       0.96081032       6.55371264
X          2.29364362       2.71826126      10.77458189
X          8.80119627      12.52960758       8.00170162
X          5.60158136       3.13640480       3.69442860
X          1.20315152       7.07646486       7.06879958
X          8.47547542      10.18040368       2.98380958
X          3.35274721      10.70572197       1.54786913
X          8.62380702      12.57233556      11.17946433
X         10.67850040       5.21136209      14.37154005
X          5.96246116       3.77737985       8.76691863
X          0.70382210      15.44819220      13.23354000
X          6.56790084      14.00798496       9.26249690
X          2.43472186       5.10666704       8.71249040
X          5.52407729       5.40676978       0.69552008
X          3.59384591      13.49271921      12.60616319
X          6.33397063       4.04533901       5.51642911
X          9.35301472       3.14223149      10.96048683
X         10.54039207       8.41292620      14.52430614
X          1.86653935      12.09011810       7.01049775
X         10.47521904       3.47806979       4.83895570
X          7.57968877      15.36135571       2.25696153
X          2.79178877       1.64090154       4.02512364
X          9.09905898       0.28088059      10.93954627
X          1.23982567      13.91483296       2.81253039
X          9.89312365       5.71423648       9.53134851
X          0.78842408       4.17169384       6.28865603
X          0.95367446       9.76287155       0.63434462
X         11.11927494       0.07872348       9.47186708
X          7.75636997       1.18963218       6.49506305
X          7.12091112       9.22601099       5.59367681
X          0.57401500      14.24969963       8.17151852
X          9.89312054       4.08237087       1.77543820
X         10.37469541       7.32746219      11.93278934
X         10.73162897       2.59936402      14.85251621
X          9.19826316       0.46266663       3.05533118
X          9.06378157      14.41357606      12.55850266
X          6.67392888      15.34058410      11.04026021
X          5.96012439       0.92509791       9.35802024
X          6.49469839       8.63578398       8.71138273
X          4.73581358      12.29896336       1.82457789
X          7.07073943       4.49107206       3.61635628
X          0.13056880      15.33763845       0.92236212
X          1.23487869      15.36097342      10.15772144
X          7.93884876       0.46609051      12.94532664
X          4.76089653       0.44812354       0.98134637
X          9.35151916      11.26467145       6.64170727
X          9.09893636       5.48442468      11.78372764
X          9.65335359       8.40712160       2.20231393
X          6.07195111       8.21450896      14.05201890
X          4.17355012       2.63674806      11.28842770
X          7.71940535      11.99310674       1.68199710
X          3.03528148       1.43046737       0.33349025
X          8.66191988       7.22981078       8.75348318
X          6.73639400       0.48660837       3.16356393
X          2.81216348       3.12630050      12.50751578
X          7.87698208       8.80986783       0.82363592
X          2.88257946       3.45248339       1.33944372
X         10.81271928       3.41596119       9.79628233
X          8.98922820       8.42518154       6.73812239
X         10.24456602       6.48086753       0.61979574
X          7.93531277      10.63751019       7.97580632
X          0.56850049       8.37567348       4.52737096
X          4.51551101      15.34618533       4.44480389
X          4.95163974       1.50482827       6.74518893
X         10.03598652      10.71374581       1.21220697
X          3.10658038      13.45703731      12.82577219
X          8.38753632      11.45123964      13.05169038
X         11.22527561      11.59480229       9.47874604
X          9.95830928       9.92399401      11.11397351
X          0.19683768      10.44590034       4.13286998
X          0.03064808      14.82265648       0.89171857
X          0.41142918      14.74926473       8.19130807
X          5.94619564       3.21448077       8.94741734
X          8.95791728       0.35060921       3.51136264
X          6.91474709      13.29443356      14.66997735
X          4.38479674       1.33883826       6.81914603
X          5.89341827       3.79245248       5.53660373
X          8.26491475       6.33348780       1.92482796
X          2.00815903       4.70065391       8.78731193
X          3.55563462      10.72978694       6.41748672
X          7.54601313       7.63521958       6.89140542
X          8.70008307      14.14406568      12.29447326
X          0.32784185       4.26620994       6.51054521
X         10.63950497       2.64428734       9.64023471
X          8.43618299      15.79531406       7.69542819
X          3.84569394      11.96593225       3.99956463
X          1.31139476       9.61351302       1.19945608
X          5.03093183       5.99068415       0.77924473
X          9.07719792       6.80662117      13.40132178
X          1.14250689      14.86152181      10.29368769
X          3.12747949       9.97463329       1.75846463
X          0.26740224       6.01588688       4.30140652
X          4.56705334      12.25441363      10.53101010
X          2.92814494       0.95324617      11.61817697
X          9.90489299      14.03970989      14.69456391
X          5.55889367       2.66221440       1.14709423
X         10.61982332       3.01271753      14.51885260
X          5.56354906       6.04281809       8.75965378
X          8.12447003       8.24589764       0.81014891
X         10.39784063       2.91995856       4.94578741
X          6.50552484       1.88525319      10.98044918
X          9.81251506      10.94455467       6.52932344
X          1.55022767       9.42358438       5.94306032
X          1.92228451      12.90726445       6.92269645
X          7.30713435       1.55182970       1.51124931
X         10.95409256      13.48755728       6.14290572
X          1.52293495       3.90712596       3.66611633
X          0.72690959      14.93200143      13.27501784
X         10.89556384       8.63351397      13.98046917
X          3.45028252      11.15436730      12.70731417
X          5.06015196      12.41794568       1.30744634
X         10.26423838       7.57450357      11.21091650
X          2.05763074       9.81453360       8.28179961
X          7.43299794      11.64801466       1.95588711
X          7.85977153       1.62361903       6.87244425
X          6.03379640      13.76468642       9.08648380
X          9.76617884       7.92180089       6.21838524
X          5.51554395       2.69242782       3.14965604
X          4.57946787       7.59986036      10.69767389
X          1.00563092       2.48476518       2.77179146
X         11.42982247      11.25165376      13.90693704
X          8.75308544       6.63448327       1.71788804
X          4.66170134      13.95564207       9.96798719
X          2.64852474       7.88280914       8.44187310
X          9.36598192       5.13013092      12.04957990
X          0.80059563      13.93893683       3.41965492
X          3.24987838       1.49199398       4.37188469
X          7.31027767       9.01900362       6.36187782
X          8.92030801       7.71711838      10.83210910
X          8.23403409       0.87962488      13.52725685
X          3.50209037       6.08500461       6.34551019
X          6.52931665      10.89381004      14.68199485
X          2.43203705       9.21946743       3.29149623
X          3.12211367      15.62034146       8.05323944
X          8.53116902      13.22114205       7.87754346
X          9.16100352      11.93465822       3.47326980
X         11.34508825       5.41668891       5.15882410
X          7.28627373       8.16982430       3.34739215
X          0.58037306       7.75580621       4.26869610
X          6.00998560      13.90790267       4.05348674
X          2.37260173       1.81806778       7.17916570
X          8.60735330       2.48822246      13.46328258
X          5.60530523       7.54763073      14.37309748
X          2.19248108       9.29239183      11.91629103
X          7.32228872      10.34966730      10.96837880
X          9.16239324       7.19268360      14.00098481
X          0.73485146       4.58900248      11.04571786
X          5.09879989       0.80425213       1.42954718
X          7.93075069       9.97221776       8.01989440
X          3.90957767       7.42062993      13.97290744
X          8.72581041       0.66710046      11.17138473
X          7.21780375      14.66192945       2.12025624
X          4.78680236       7.35423186       5.39497930
X         10.19845349       8.78766917       1.77887144
X         10.17006855       0.96573482       5.98620459
X          1.34381946       7.69848249       7.56915294
X          0.56020049      15.70473457       4.40250526
X          6.00275245       0.21255611       9.18153660
X          3.58159538       4.67913174      14.50673185
X          6.33037350       1.14433922       2.81973635
X          1.30139013       4.92999916       2.45282171
X          3.05159847      13.13095575       8.07001760
X          2.44637630      14.78992946       0.80593415
X          5.61411582      10.30734988       4.49973244
X          7.38114264      12.91274937       6.81722237
X          9.52474258      11.05074306       1.51341994
X         10.22507851      13.98429645      10.66418287
X          8.96292169       7.74850679       9.00143162
X          2.52901077       6.13775793      11.99334755
X          4.40351810       1.61634409       9.41424068
X          0.95662369       3.63060394       1.20548342
X          8.28083826      11.86032169      11.28572365
X          7.72040929       4.61704982       1.15843326
X          2.26487603       0.34833770       2.44882214
X          2.87481265       3.55939816      13.12002562
X         10.90207770       8.67765843       9.68657765
X          9.75407855       6.29881408       6.55424310
X          2.15622570       6.54260118       4.37424697
X          2.22028241      13.18215969       1.49688553
X          6.86506692      15.73226736      11.49617474
X          0.82590659      10.96424070      13.20324235
X          6.87118337       4.36494134      12.88494025
X          9.89282223       5.38240919       9.11665473
X         10.68593487       0.79684772       9.53405888
X          9.62086586      15.98532396      14.71938642
X          3.37274017       2.24382187      14.58212934
X          1.68622780      14.58116105       5.45484912
X          2.20529999       3.57484258       2.21229701
X          9.42541602       4.33131820       2.16630349
X          5.39235400       5.41163315       4.05148146
X          9.00124016      11.83382354      13.59857931
X          1.06518884      10.59058518      11.27520797
X          4.45858619      12.71934470       5.58834213
X          6.85654314      14.58576028       6.49711481
X          6.97646587       4.36162719      11.10266830
X          5.84323518      12.19402943      13.63587476
X          6.71359726       8.47663501       8.07268745
X          3.97453727       7.19866696       0.86187940
X          7.98588911       5.37212386       8.42811655
X          9.42861178       1.70043637       9.13456357
X          7.56626733       9.14511084      13.03903440
X          8.36595005       9.33380745       3.14921802
X          4.79303120       2.50710466      10.78668950
X          4.81535451       8.73850172       9.60935304
X          1.65020583       8.15422785       2.16463759
X          6.44984974      13.68683006       0.93832146
X          7.56935533       4.66931193       3.21007738
X         11.11524928       5.79009774      14.67763902
X          8.69226807       7.87366989       3.65427174
X          5.44452267      11.89239272       8.97074237
X         10.36781987      12.35834735      12.97782731
X          9.28009280       2.63369310      10.46314501
X          1.96384035       3.52669755      10.76114909
X          5.41298951       1.88975772      10.02243518
X          8.04879947      10.77792964      11.87494298
X          6.34222013      13.64945781       2.11235748
X          3.29189681       3.60486601      14.52511306
X          4.71476980       1.24382355       4.65286515
X          7.60782658      14.00881188       7.32994365
X          1.69610106      14.26704224       1.62928160
X          2.43710871      14.07174942       7.21599233
X         10.42028379      11.94171894       4.85679210
X         10.41725313       1.43133258       4.58766177
X          4.03990986       6.36118383       5.14139719
X          1.78661608      10.35251280      12.31976312
X          4.41895492      11.56535499       5.07337245
X          9.15945982       1.68268717      14.11499568
X          9.71718265       8.10016263      10.26578231
X          6.27908861       2.59207623       6.98229718
X          1.37392856       3.37148680       8.12163354
X          2.30116590      15.08447200      11.93916978
X          1.73556659      14.27575031       1.65280211
X         10.22596190      12.00317804      13.96007786
X          4.69814995       1.22735480       4.60317874
X         10.38195959      11.90097388       4.86048636
X         10.91689344      12.74021058       7.73747405
X          1.94609077       4.57108640      11.08902750
X          4.87232473       7.76634603       9.46512240
X         10.16612675       7.14788814       5.72148598
X          6.28267691       2.63106633       6.98983146
X          4.91192120      12.87980366       9.50124432
X          5.84675112       1.84553010       1.99569688
X          8.50112101      14.87988343      14.29569295
X          1.35908204       3.35822253       8.14914009
X          4.92398903      12.87004731       9.48893992
X          7.53770441       3.75738668      11.95484693
X          1.94036887       4.58255463      11.07990540
X          4.84021289       7.80363107       9.43863629
X          1.60233382       8.73906630       7.87073347
X          7.56667928      14.00577420       7.35562294
X         10.41965561      11.91551989       4.86829846
X          2.32856234      15.07435006      11.96700753
X          7.52533105       3.74796305      11.96162439
X          6.69388346      12.02523740      14.57629025
X          2.35332085       9.01567310       1.96765814
X         10.92006928      12.75807112       7.75246030
X          1.58195730       8.71427421       7.88493254
X          4.70353868       1.22564322       4.65238111
X          1.42794279       3.76956055       2.53887550
X         10.20108213      11.99696867      13.92443861
X         10.91658854      12.75283677       7.74752311
X         10.38010610       1.44849264       4.57865785
X          2.36326296       9.02910753       1.95407464
X          9.71597454       8.13803083      10.27169021
X          5.86399401       1.85383033       1.97296742
X          6.37207663      13.61618073       2.11503475
X          1.77130338      10.38035069      12.31496797
X         10.15136726       7.16694552       5.74185462
X          6.24748656       2.59903163       6.98567824
X          9.15911426       1.66418902      14.16801803
X          6.37669008      13.61142757       2.11249426
X          8.10741998      10.77385170      11.86348108
X          8.49796168      14.94907789      14.27574311
X          5.43598164       1.93845748       9.98770882
X          2.40726537      14.07729235       7.23039142
X          1.30597568       3.33877713       8.12995888
X          6.69560450      12.02384540      14.58259620
X          3.24886981       3.60268159      14.52059882
X         10.37309327       1.43420097       4.57218029
X          9.93113748       1.66205534       9.89641683
X          4.05334029       6.34511850       5.15449484
X          2.28521179      15.08191379      11.96659012
X          1.78339092      10.32984721      12.33904461
X          3.26246892       3.60386772      14.54290209
X          4.73414540       6.89194751      14.74772873
X          7.80243875       8.44642647       7.27333290
X          8.50758740      14.86813597      14.29139569
X          8.07944409      10.76801853      11.85723334
X          8.31036820       8.20478949       2.90346463
X          5.42391302       1.92932975       9.98963191
X          7.57768307      14.00032985       7.36107573
X          4.02548337       6.37289434       5.12996893
X          4.42043897      11.57924074       5.07528233
X          9.16892581       1.66910534      14.16615462
X          4.39624853      11.55787458       5.07333208
X          9.92190758       1.66706164       9.89360414
X          1.41924489       3.77317783       2.53644096
X          2.39851531      14.07653941       7.23745062
X          9.69485720       8.16084409      10.25359182
X          7.83367720       8.43608584       7.25729726
X          4.73271433       6.88983364      14.74421566
X          1.70557839      14.26169791       1.63995545
X          8.31466913       8.20801728       2.90532417
X          6.78938001      12.01761453      14.54097395
X          7.56503795       3.74485754      11.94409601
X          1.94668982       4.58138793      11.06011101
X         10.09114622       7.19012648       5.60681435
X          1.34633901       3.37604760       8.10239850
X          2.26416020      15.09329898      11.93699789
X         10.39994973      11.93636100       4.86652573
X          6.24593645       2.58481018       7.01570106
X          5.87099513       1.85942678       1.96799932
X          2.42376756       8.94189488       1.89441602
X         10.22044983      12.00736773      13.96062670
X          4.74014955       1.24509429       4.62860567
X          4.69026707       1.23676263       4.65106611
X         10.89762605      12.76205252       7.73858492
X          4.89601546      12.90080045       9.45330661
X          8.49078552      14.84070560      14.29398152
X          6.25608071       2.61357709       6.97435909
X         10.39019897       1.44823636       4.57608665
X          4.04851955       6.39259001       5.13185433
X          1.57362879       8.72781784       7.86796950
X         10.17984358       7.14765498       5.71807778
X          6.69309694      12.03160560      14.58054038
X          7.53958472       3.74710160      11.96395911
X          1.93637328       4.60061459      11.08254169
X          4.85017843       7.78486982       9.45916681
X          7.57859870      14.01536170       7.35249335
X          8.30696967       8.20641128       2.90610670
X          9.91862526       1.66831087       9.90086996
X         10.90570923      12.75785182       7.74555300
X          6.36868515      13.61279667       2.11351946
X          1.69835654      14.25743425       1.63118824
X          2.41118066      14.08425147       7.23179384
X          1.78670186      10.36107091      12.32717644
X          4.43770366      11.55072655       5.07005794
X          9.16437995       1.67311359      14.15548923
X         10.24680978      12.01837800      13.94907913
X          4.86192919       7.77545418       9.46391926
X          8.07799241      10.76248269      11.85645608
X          1.58626444       8.74303683       7.87343417
X         10.36730746      11.93404597       4.87595011
X          1.34864054       3.36431431       8.10984062
X          5.89460976       1.84812942       1.97979317
X          3.26555943       3.63118743      14.54154541
X          2.35948232       9.01602305       1.96226489
X          1.44206961       3.77059227       2.50876751
X          5.43064251       1.94493138       9.99137685
X          2.29208441      15.07939501      11.98624983
X          4.70149232       6.82961491      14.74045788
X          7.79455485       8.44310635       7.26711818
X          9.70853609       8.13729436      10.27315456
X          4.92052442      12.86815605       9.49644294
X          8.43350003      14.83292708      14.36962832
X         10.43942115       1.47602913       4.53717020
Fe         1.42164840       3.77200120       2.53674020
Fe         4.69927060       1.23023670       4.64254630
Fe         1.35004470       3.36395330       8.11433420
Fe         5.42569280       1.93174130       9.99399910
Fe         1.94012480       4.58233700      11.07741890
Fe         3.26086800       3.60465180      14.53444190
Fe         2.36252210       9.01799390       1.95410190
Fe         4.03573390       6.37059070       5.13882540
Fe         1.58856100       8.73147530       7.87320990
Fe         4.86159600       7.78198710       9.46210840
Fe         1.78627840      10.35589370      12.31816210
Fe         4.73311560       6.88858410      14.74550090
Fe         1.70318710      14.26607030       1.63585830
Fe         4.41390490      11.56450530       5.07312250
Fe         2.40996520      14.07888000       7.22917580
Fe         4.92040440      12.87727300       9.49102250
Fe         2.29135380      15.08196000      11.96089170
Fe         6.69321820      12.02675830      14.58306870
Fe         5.87103430       1.84854960       1.97732980
Fe        10.39058900       1.44056240       4.57997690
Fe         6.25590790       2.60656070       6.98242700
Fe         9.92805080       1.66693950       9.90120300
Fe         7.53603640       3.75617440      11.95847020
Fe         9.16683910       1.66880350      14.15651970
Fe         8.31097380       8.20572400       2.90716830
Fe        10.17601690       7.15013140       5.72587390
Fe         7.80120630       8.44279100       7.26891300
Fe         9.71045840       8.13773380      10.27432550
Fe         8.07930970      10.76781600      11.85570450
Fe         9.35508680       7.42317560       0.56983260
Fe         6.36937600      13.61625930       2.11271790
Fe        10.39933430      11.92572860       4.86897790
Fe         7.58325650      14.00947440       7.35263610
Fe        10.91478030      12.75409700       7.74671980
Fe         8.50592530      14.87065010      14.29332250
Fe        10.22656120      12.00888980      13.95113190
O          1.61690120       3.93888760       4.26713490
O          0.72717280       2.03857980       2.84995850
O          2.97357700       3.39984640       1.92911660
O          5.33198680       2.87240270       3.52830070
O          0.50374140      16.09603100       4.28720380
O          1.06068060       5.43793550       2.34277190
O          0.84160430       3.56622130       0.73879370
O          2.91322700       1.53294980       4.36386050
O         11.03278250       3.10489730       9.60930930
O          2.13076850       1.86645240       7.40602320
O          4.67518040       1.53234070       6.58601410
O          5.84658690       3.37716330       8.68391080
O         11.15044310       0.50094470       9.42133890
O          2.15166550       4.98357440       8.93876020
O          0.65289850       4.27031340       6.65825220
O          3.90003410       1.49569180       9.18206810
O         10.98820890       5.21482240      14.29624600
O          2.01932670       2.87650310      10.47218850
O          4.54666340       2.84219370      11.21825700
O          3.78063330       5.24446170      14.38884080
O          9.94161090      16.17422990      14.71952150
O          2.43221050       6.14002360      11.68650240
O         11.48797470       4.59109420      11.61237790
O          2.63519370       3.46044740      12.71755460
O          2.51236340       9.33051150       3.77303530
O          1.27026490       7.66908250       2.16072740
O          3.75622790       7.62524400       1.56204200
O          4.93067050       7.86962090       5.51057740
O         11.23609800       5.73783360       4.93047650
O          3.52807690      10.32629490       1.60483690
O          1.02356940       9.84304950       0.98137600
O          2.51615770       6.58765680       4.28862830
O         11.28546830       8.92509320       9.46873890
O          1.12008240       7.06466010       7.36353400
O          3.42022580       5.76233730       6.72554780
O          4.73658370       9.50046560       9.69732290
O         10.08575990       5.45839860       9.44417940
O          2.24601740      10.27078820       8.55973780
O          1.37712640       9.55603340       6.26210180
O          3.03566830       7.61518120       8.65387190
O         10.79076830       8.81199690      14.16407490
O          2.20864430       8.74297310      11.73643560
O          4.58927790       7.44877060      11.20200330
O          6.07642230       7.83160630      14.02264420
O         11.27160630       6.39178030      15.00586850
O          3.28928430      10.94521620      13.02345330
O          0.94527720      10.87149810      10.86764170
O          3.51972150       7.63293130      13.66657800
O          1.09826750      13.75480410       3.27128180
O          2.30528720      12.63088250       1.33030250
O          4.91526900      12.56940420       1.59132950
O          4.53641920      13.17629610       5.88104560
O          0.34662330      10.74487240       4.07276740
O          2.47966630       0.08288210       2.22801050
O          0.15744350      15.07260250       1.16037410
O          3.44420520      12.12578640       3.69205690
O          0.53422370      14.45447620       7.93237360
O          1.63231850      12.36653470       6.76908290
O          3.84959050      10.76189290       6.55829100
O          4.46864050      14.50529740      10.21161640
O         11.01512730      11.61097220       9.17121990
O          3.25084400      15.54400380       7.77896930
O          2.07814680      14.66601600       5.60822340
O          3.30683310      12.78614140       8.37965010
O          0.75245630      15.17959580      12.99179260
O          3.20906900      13.58837560      12.57225280
O          4.46938050      11.92891660      10.90928240
O          2.83224950      15.00944610       0.39592850
O          0.52252920      11.05649210      13.54964320
O          3.08271440       0.72009220      11.90614710
O          1.47559710      15.03864590      10.29330810
O          5.56016030      12.31278190      13.23519740
O          7.47208070       4.48667680       3.55759420
O          6.55931240       0.78664910       3.35006870
O          7.72415800       1.49047450       1.37823720
O         10.33947060       3.24085330       5.06488680
O          4.50846940      15.53682830       4.68792220
O          7.58468340       4.33546910       0.91821620
O          5.35972090       3.00009470       0.73456030
O          9.25775860       0.54907010       3.41967310
O          7.72741130       5.05941280       8.37710900
O          7.60791480       1.53278480       6.41313330
O         10.16496810       0.76719490       6.27919840
O          9.07300920       3.09234020      10.75181450
O          6.19816110       0.56253570       9.04971780
O          9.68051270       5.84023080       6.82505630
O          6.10184770       3.96785550       5.78951160
O          8.92719540       1.81657890       8.48670090
O          6.58366720       4.67030350      13.21437290
O          6.83663370       1.91118230      11.32492990
O          9.11482380       0.56538970      11.01229530
O         10.64242670       2.60435200      14.51274010
O          3.42394390       1.78382300      14.52093720
O          9.15829870       5.09859100      11.82311570
O          6.67344900       4.69593310      10.75389330
O          8.40746540       2.97468610      13.33238500
O          6.64520670       8.07862880       3.51001530
O          8.51834060       6.46602810       2.06142230
O          9.75836400       4.08077950       2.17063310
O          0.35254180       8.06514280       4.38549630
O          5.02795770       5.50960310       3.93992370
O          8.41883310       9.93560830       3.33507210
O          7.77975430       8.55029000       0.95764520
O          9.03084870       7.55209100       4.29224220
O          6.34088240       8.57867080       8.42250900
O          7.34955120       7.00964880       6.62108640
O          9.55594620       8.51085090       6.54876520
O          9.70069910       9.98991220      10.94062340
O          5.29228780       6.06007780       8.96200460
O          7.90220870      10.31444420       8.25145610
O          7.10334120       9.40631530       5.93019760
O          8.82875730       7.55386990       8.67512360
O          7.91432180       9.33872830      12.94958960
O          8.30576650       7.48457790      11.15512100
O         10.64103730       7.32629850      11.62139960
O         10.06674270       8.43381400       1.93839330
O          5.38699630       5.65988950       1.03033680
O          8.32447460      12.33135230      10.97616670
O          6.92979980      10.13377250      10.69221110
O          8.94566400       6.83422240      13.79163420
O          6.12880980      13.58368630       3.84682040
O          7.36542250      11.93890710       1.72450180
O          9.68435280      10.89399430       1.18772460
O         10.87555510      13.57756950       5.82983680
O          5.33231110      10.25950720       4.30050650
O          7.60017380      15.00028250       2.02578120
O          4.90650200       0.44263200       1.31999980
O          9.31001470      12.33599360       3.45693640
O          6.44115710      14.00842660       8.97908880
O          7.25542540      12.40053870       6.50235290
O          9.75428960      11.22269700       6.50808260
O         10.16616190      14.22323800      10.35682190
O          5.71299520      11.53859740       8.63152450
O          8.44488230      15.44454000       7.93990710
O          6.58036470      14.88692740       6.16434700
O          8.93394620      12.92379950       8.12856560
O          7.01962760      13.88076210      14.77045370
O          8.73116850      14.44623800      12.54596720
O         10.57977950      12.58167760      12.34456210
O         10.14941050      13.73812450      14.80432480
O          6.36336400      10.33776450      14.83429020
O          7.87802040       0.48798950      13.37063500
O          6.60089180      15.41951140      11.40046170
O          8.45127130      11.71398240      13.53195510
Si         0.22511340       4.28941800       5.11973710
Si         1.78831700       0.94032040       3.41917340
Si        10.20349900       4.32688200      10.62481370
Si         3.49262520       1.05072470       7.65254800
Si        10.58240800       3.72368850       0.81293010
Si         3.05947070       2.26567990      11.62791940
Si         1.16048260       9.50112930       4.65509220
Si         1.11351840       6.69282590       3.49581980
Si        11.11805220      10.42105480      10.21372610
Si         2.45481280       6.23064780       7.92898160
Si        10.82730910       9.66922670       0.83960210
Si         3.22623290       7.50900690      12.07746280
Si         0.77736920      14.50947910       4.65658660
Si         3.52196560      11.85772100       2.08972080
Si        11.46835550      15.04385030       9.84537530
Si         2.75976130      11.43621040       7.56633340
Si        11.17980010      15.05778790      14.75933280
Si         4.10507690      12.27861540      12.47109190
Si         5.99757080       4.23553850       4.21184200
Si         7.94445210       0.34288360       2.57217400
Si         6.33936680       4.87055000       9.18458670
Si         8.84209650       0.80669900       7.16106940
Si         6.63374790       4.56968770      14.82542810
Si         7.64856480       0.53211380      11.73103660
Si         6.01949970       8.86720630       4.81607550
Si         8.32306140       4.85801280       2.24872280
Si         6.31191210      10.10804880       9.17744480
Si         9.05406150       5.95323380       8.30613320
Si         7.15919290       8.99524100      14.34096940
Si         9.26626130       6.66189910      12.23175990
Si         5.44168420      14.32725720       5.14481290
Si         8.65066000      11.28362050       2.45159180
Si         5.91306640      15.22795650       9.93748810
Si         8.39407500      11.55742630       7.32064560
Si         3.36428660       0.34414680       0.83453330
Si         9.40693090      13.42431000      11.51693460
