Fe Li  O Si                             
   1.00000000000000     
     6.1272639932603745   -0.0000004030242926    0.0403794666852988
    -0.0000003730807499    5.4208022883570806    0.0000001172096413
     0.0318038820337145    0.0000001010833118    4.9045467459923406
   Fe   Li   O    Si
     2     4     8     2
Direct
  0.7599315460365564  0.3376872086287467 -0.0032081566966386
  0.2599315185247026  0.6623128309808992  0.4967916883720639
  0.4972670449879009  0.8445370519418918  0.0022641031018509
 -0.0027325813847408  0.1554626503982012  0.5022645986478370
  0.2471436943700009  0.3186994059286804  0.0087056036775651
  0.7471436486513715  0.6813003871131222  0.5087054261612275
  0.2188580867416866  0.6741918940458905  0.9127274471018005
  0.2770387003575021  0.3110170933349947  0.4069028447245888
  0.7188582784058444  0.3258081311060009  0.4127275079086977
  0.7770385934347365  0.6889830321156565  0.9069029127929282
  0.0016577421504721  0.1102232081222952  0.8994936443781407
  0.5016576907332979  0.8897769052487782  0.3994934999957337
  0.4980420929063048  0.1707959956252503  0.8457975570380939
 -0.0019579194990114  0.8292041674728782  0.3457976294027489
  0.0000608734954395  0.8263044146803952  0.0123168556486079
  0.5000610050879337  0.1736956982563221  0.5123168107447289
 
  0.00000000E+00  0.00000000E+00  0.00000000E+00
  0.00000000E+00  0.00000000E+00  0.00000000E+00
  0.00000000E+00  0.00000000E+00  0.00000000E+00
  0.00000000E+00  0.00000000E+00  0.00000000E+00
  0.00000000E+00  0.00000000E+00  0.00000000E+00
  0.00000000E+00  0.00000000E+00  0.00000000E+00
  0.00000000E+00  0.00000000E+00  0.00000000E+00
  0.00000000E+00  0.00000000E+00  0.00000000E+00
  0.00000000E+00  0.00000000E+00  0.00000000E+00
  0.00000000E+00  0.00000000E+00  0.00000000E+00
  0.00000000E+00  0.00000000E+00  0.00000000E+00
  0.00000000E+00  0.00000000E+00  0.00000000E+00
  0.00000000E+00  0.00000000E+00  0.00000000E+00
  0.00000000E+00  0.00000000E+00  0.00000000E+00
  0.00000000E+00  0.00000000E+00  0.00000000E+00
  0.00000000E+00  0.00000000E+00  0.00000000E+00
