    62
 Wannier centres, written by Wannier90 on24Jan2026 at 17:37:04 
X          4.59349221       3.69249209       2.52524666
X          1.51395917       1.72830882       0.05278426
X          6.12625140       0.84357219       2.50348161
X          3.04671461       4.57722751       0.03101618
X          3.35567606       4.73085793       2.11106808
X          0.30794714       0.68994207       4.54315350
X          4.81485607       3.75362297       4.16807311
X          1.73532454       1.66718192       1.69560929
X          4.44518378       1.76654340       1.70332302
X          1.59632678       3.79866588       4.64832754
X          2.88511323       0.71307688       4.28639506
X          5.93284790       4.70772830       1.85431458
X          5.87851656       0.76035778       4.58418523
X          2.79898060       4.66044748       2.11172305
X          2.97657274       1.22796465       4.17033881
X          6.02429800       4.19284552       1.73825754
X          4.82572707       3.39443554       4.60957529
X          1.74619021       2.02636594       2.13711537
X          4.64406244       1.62214146       2.21623628
X          1.03110087       3.89902859       4.56608114
X          4.56762992       3.90207062       4.61448325
X          1.48809811       1.51872952       2.14201766
X          4.07882229       1.52176563       2.13400064
X          0.00930123       4.54727159       1.27740481
X          3.08884235       0.87352789       3.74986870
X          0.04036714       0.55917123       4.10222301
X          3.08809493       4.86163218       1.67013873
X          1.39745629       3.65425639       4.13539640
X          0.32778530       4.49913015       1.78149229
X          3.40731349       0.92166429       4.25396136
X          1.26587991       3.38065373       4.61428699
X          2.06652171       1.50138195       2.14159460
X          5.14605374       3.91942184       4.61405832
X          6.13461486       0.20079273       4.59698350
X          3.05508281       5.22000931       2.12452035
X          4.31361937       2.04015102       2.18219762
X          1.62248032       3.58919015       2.40045738
X          4.70155877       1.83138763       4.87267185
X          1.67001366       3.57186521       2.46800127
X          4.71774467       1.84888875       0.03605577
X          4.65066193       1.82246279       0.03599236
X          1.60266396       3.59885928       2.46837205
X          1.60503390       3.58918849       2.44569877
X          4.68494683       1.83143772       4.91862726
X          1.56481433       3.58583835       2.45686315
X          4.64416193       1.83489692       4.92926861
Fe         4.68800290       1.83053540       4.91949790
Fe         1.60846870       3.59026690       2.44703400
Li         3.04695820       4.57806820       0.03118390
Li         6.12649470       0.84273190       2.50364930
Li         1.51459140       1.72760640       0.05267660
Li         4.59412490       3.69319440       2.52513890
O          1.37002930       3.65466100       4.48535190
O          1.71043020       1.68596210       2.00686070
O          4.41776070       1.76614120       2.05326850
O          4.78996340       3.73484060       4.47932420
O          0.03876480       0.59749830       4.41167560
O          3.08649420       4.82330450       1.97959130
O          3.07853500       0.92585120       4.16836440
O          6.12626470       4.49495150       1.73628110
Si         0.00076440       4.47923290       0.06041110
Si         3.08029940       0.94156990       2.53287400
