    54
 Wannier centres, written by Wannier90 on24Jan2026 at 17:38:36 
X          4.59347236       3.69260176       2.52526349
X          1.51393932       1.72819917       0.05280108
X          6.12628645       0.84349583       2.50337128
X          3.04674972       4.57730411       0.03090591
X          1.61925312       3.72740134       4.67037472
X          4.66698527       1.69340089       2.23829101
X          4.55113956       3.87826889       4.60122527
X          1.47160698       1.54253342       2.12876202
X          3.08390195       4.84771222       1.67416593
X          0.03617280       0.57309009       4.10625008
X          2.92596720       0.69981857       4.30641500
X          5.97369752       4.72098541       1.87433130
X          1.41553896       3.67231415       4.09461963
X          4.46327024       1.74848825       1.66253608
X          1.73792242       2.06584220       2.16159454
X          4.81745475       3.35496059       4.63405835
X          2.74055074       4.65505285       2.10594265
X          5.82008586       0.76575065       4.57840626
X          2.98444862       1.22743100       4.18763563
X          6.03217714       4.19337149       1.75555337
X          1.06214933       3.93147611       4.56515923
X          4.10988126       1.48932587       2.13307568
X          5.14430743       3.91083015       4.62464577
X          2.06477482       1.50997304       2.15218206
X          3.06648399       5.21745089       2.13751671
X          6.14601776       0.20335099       4.60998022
X          0.01891532       4.53729550       1.27279078
X          3.09844986       0.88350632       3.74525343
X          0.25880852       0.74441103       4.56515035
X          3.30653729       4.67639045       2.13306624
X          1.20952450       3.39465973       4.54976585
X          4.25725619       2.02614215       2.11768244
X          1.74893649       1.72458928       1.70768631
X          4.82846924       3.69621331       4.18015003
X          0.37535783       4.43400577       1.79697636
X          3.45489241       0.98679650       4.26943909
X          4.68407072       1.82717347       4.93043033
X          1.60453553       3.59362872       2.45796678
Fe         4.68800290       1.83053540       4.91949790
Fe         1.60846870       3.59026690       2.44703400
Li         3.04695820       4.57806820       0.03118390
Li         6.12649470       0.84273190       2.50364930
Li         1.51459140       1.72760640       0.05267660
Li         4.59412490       3.69319440       2.52513890
O          1.37002930       3.65466100       4.48535190
O          1.71043020       1.68596210       2.00686070
O          4.41776070       1.76614120       2.05326850
O          4.78996340       3.73484060       4.47932420
O          0.03876480       0.59749830       4.41167560
O          3.08649420       4.82330450       1.97959130
O          3.07853500       0.92585120       4.16836440
O          6.12626470       4.49495150       1.73628110
Si         0.00076440       4.47923290       0.06041110
Si         3.08029940       0.94156990       2.53287400
