Fe  O Si                                
   1.0000000000000000     
    11.3361426146581667    0.0036333080064977    0.4227262789484953
     0.0099309077419901   16.1323745019093003   -0.0298281238239494
     0.5088960849930472   -0.0270571283886034   14.2355925030728230
   Fe   O    Si
    36   144    36
Direct
  0.2329075270305749  0.2373603322772784  0.2258215380697548
  0.5331642256689959  0.0690171001631025  0.4032697937150010
  0.1606912578275399  0.2655708855221467  0.5093153030349469
  0.3258512505910250  0.0172831233079587  0.7063991402135527
  0.1216271611267707  0.2442481445561738  0.7742248898388445
  0.2988866314370928  0.2033733997457694  0.0215717438010759
  0.0147268145596294  0.5087532897129939  0.0684294212221407
  0.3205623903835387  0.4277773525601810  0.2853255420747762
  0.1962514376147663  0.5524924576862146  0.4022171806838945
  0.2806850753941921  0.5521594479512482  0.7070423030935936
  0.0528178578525885  0.5509378844831370  0.8241619899840162
  0.5114634275410967  0.4388997675293508  0.1352081129444560
  0.1668435804657165  0.9268447687311433  0.2138562368606379
  0.4116314543671104  0.7956523460779691  0.1870191971522210
  0.2766454926460268  0.8921336930966693  0.5511576659598618
  0.4648953755416575  0.6762363751598300  0.6997574260664483
  0.1262955808599232  0.9457866870362405  0.8780346550541094
  0.4166944885443065  0.7050046731968188  0.9195061514650370
  0.7391767268217981  0.1904430003919563  0.2612427295686236
  0.7773133341807488  0.0308183266907389  0.4172652627149635
  0.4280362297126044  0.2426165806625618  0.5152764341136475
  0.0140157874031861  0.0534308076720385  0.7563642285843472
  0.6061935990899571  0.1953950347443612  0.7302169941410247
  0.7760372410958200  0.1912449681261094  0.0271084834647580
  0.7606621027310922  0.5472731188367421  0.1187076984546994
  0.9000440614870452  0.4605948530298657  0.3095354015646896
  0.6467070943606893  0.5901718943878163  0.3448016660259238
  0.9899840439795674  0.4401761023178939  0.5265059038823587
  0.5694254212724060  0.5308783725092590  0.7560098691300829
  0.9602745177700008  0.3933137360516613  0.8419948871862957
  0.6913687891099083  0.8093170013937462  0.0933552180300807
  0.9077552902463176  0.8762208148850944  0.2792439520179444
  0.4505659839434663  0.8569572491436178  0.4201719595023999
  0.8360842680261475  0.7876183490499626  0.6450957488007067
  0.6556535460997462  0.9027958343070412  0.7753612161870501
  0.8507956692551516  0.6617893560282638  0.9639535225788258
  0.0770174159625858  0.2235189141218995  0.2466420545419481
  0.3013090850698117  0.1670149916690981  0.3041100279897971
  0.2759605154721452  0.1451368422268026  0.1423597408011311
  0.2564541214496829  0.3239741062405013  0.2938833326333668
  0.9925490256366216  0.0900949137950131  0.3350542979043666
  0.2433350219594294  0.2920162894357493  0.1044741537412484
  0.1559959050794635  0.1985496955623207  0.9738941026345110
  0.4676835373968425  0.0681670366519320  0.2065989168990133
  0.1004230138420955  0.3637281550033184  0.4949418906197657
  0.2725949231153687  0.1769782153009932  0.5185388715446568
  0.3796173307267101  0.0569132815367888  0.4224639441288734
  0.2738556636794669  0.2108576430532398  0.7510690067834062
  0.0154647401994764  0.0348801865479147  0.6336491077245741
  0.0975113742862382  0.5228493781522656  0.4969629014413384
  0.0574050129158432  0.2168787804448677  0.4359730643245207
  0.2629356728214818  0.0249876578996537  0.5912176317024395
  0.0539584655801414  0.1466598786093187  0.8346010765038246
  0.1719681334341476  0.0116419755555979  0.7668768107814893
  0.3895484857938770  0.0251740983283174  0.8158067129662091
  0.4114469910682503  0.2708792025201095  0.9748199889163993
  0.9978277784610421  0.0704496005590526  0.9981211495309501
  0.1235507879087418  0.3486182729486169  0.8468701835485170
  0.0906499192458248  0.2643530705460800  0.6424717736657042
  0.3768253750592711  0.1187582778950418  0.9716554699487531
  0.9818503813000766  0.5383819132419549  0.2186210345479888
  0.1011839191418925  0.4203755264374414  0.0962536801922272
  0.3255293631254595  0.4351180298753400  0.1469198628263824
  0.3068248235637594  0.5517791920380907  0.2858244728738331
  0.1432272249355492  0.4631013142436712  0.3001518764978591
  0.1281187682599797  0.6767022975380016  0.1974769143241040
  0.1384632660688765  0.5750006014996928  0.0353254236745975
  0.0611501907102285  0.4111549872355393  0.3210048891583305
  0.1440588297422828  0.7020751423300526  0.5720104991483537
  0.2926079845388405  0.4569255342751914  0.4242986597828827
  0.3027779626897565  0.3233316550982112  0.5410343865394002
  0.4717578915525555  0.4275901675847776  0.5198001320900971
  0.9133244518973259  0.3793895829263885  0.6208213541063285
  0.2917305848673472  0.6310562193912147  0.4466558950697267
  0.0771813315570974  0.6116425293639336  0.3615333889921879
  0.2721161526740294  0.4728361007579839  0.6164117460868512
  0.2631579511479271  0.6776208822781438  0.9139159529820315
  0.9983326618848654  0.4823229549326580  0.9179784491687776
  0.2187627773191415  0.4974039840754588  0.8225315160104106
  0.5282206556328181  0.4693536821968753  0.0147894262417180
  0.9492381539349098  0.2943267858232001  0.7767326834045885
  0.1585915575746439  0.7735183418029759  0.7358955327454184
  0.1260916376447551  0.6133473943975390  0.7254294317156927
  0.2766624280611373  0.4054802127269199  0.9656632009342626
  0.0552239972997339  0.9333397905263388  0.3239742502649646
  0.0261085839415399  0.8318582254138875  0.1890534568550211
  0.1117255942434189  0.7438379698831751  0.0387223448223275
  0.4467998176746804  0.9041408526123430  0.1728523963168867
  0.9197914528004628  0.6914351382716337  0.2714579548775736
  0.2632397699699397  0.0065981526196815  0.2587921625971119
  0.0979514545628987  0.9951340169449400  0.1324537831685061
  0.2444262702028563  0.8222872560806332  0.1694222244038409
  0.1155768289579860  0.8944862478843454  0.5618647350704007
  0.3483098906005020  0.7796760407629992  0.5257683335788108
  0.0525333358857963  0.7811843122262775  0.4142213891466961
  0.4483793552188986  0.9206343816866367  0.5332357586218245
  0.9494765002818359  0.7162467058023502  0.6839776701293020
  0.1536939014843418  0.0492088949210464  0.4441550914637385
  0.9466346373946688  0.9808853678199453  0.4749680043452813
  0.3442377079624466  0.6445706459286422  0.6232712210131438
  0.0462152769595012  0.9089803987632846  0.9814595760448769
  0.2401588146708981  0.8698647298441645  0.8624321298528990
  0.3111296010415253  0.8913964381076608  0.6836537932840052
  0.4078328170465069  0.8017556714975644  0.9910234995494842
  0.0317623084868852  0.6480657506101121  0.9031417191129818
  0.2117786270113982  0.0136704173693928  0.9453827739019387
  0.9876940636277181  0.9614645843162936  0.8325596050396643
  0.3874619587492928  0.7583418150523551  0.7763546376893119
  0.6115402949822044  0.2589404734531290  0.2616605266682096
  0.6698111630343359  0.1009010680634569  0.3406916365217962
  0.7845912958082525  0.1151727770605204  0.1583009372678696
  0.8645508618190888  0.2231794909331438  0.3257210215461178
  0.5305014673251053  0.9649707134879026  0.3352763383779930
  0.7783973247871409  0.2845277839333142  0.1044633839526968
  0.6191235071029689  0.2015740404367908  0.0180484965279287
  0.8243464128039029  0.9847293691935429  0.2826261760760204
  0.4665136025425324  0.2579978473602603  0.6431715826086055
  0.5223928622659413  0.1598981941301556  0.4855680381712297
  0.8220890381439984  0.1216132235454157  0.4806659590748047
  0.8848537656157354  0.2126992030118317  0.6206205626450958
  0.4699080739965678  0.0411467470071656  0.6482592444414248
  0.7418717274235336  0.2764181589073801  0.5056465551310779
  0.4546369107760271  0.2921003874703186  0.4043122877922198
  0.6719290217377680  0.1537017549265814  0.6244710597672559
  0.6174310698820097  0.3388832030828119  0.9186521431660685
  0.6385625313971230  0.1107694378195551  0.8065163210455324
  0.8657348533789557  0.0871748492441450  0.7697067036444341
  0.9240708530804906  0.2218258866817349  0.9787687169861168
  0.4316538078346514  0.9654040244476259  0.9859612086376877
  0.7082407892249731  0.2818959035675317  0.7501880292525550
  0.4892161203748641  0.2310992720034672  0.8102957341797282
  0.7771273310652917  0.1020995942767121  0.9523578449287580
  0.5006177113189095  0.5464196640302511  0.1717126230163513
  0.6864824073919271  0.4424108746191049  0.1582220893160186
  0.8738387728040751  0.4460409016501000  0.0719608323533293
  0.7779305298620686  0.5296778213353549  0.3417712303973544
  0.4849228275322579  0.4027191296547252  0.2739307991873306
  0.7174676231338586  0.6291482621852815  0.2154392426879754
  0.6851312287853282  0.5962573266301059  0.0211039021685783
  0.8617207024126801  0.3740366916233803  0.2380824619145623
  0.5955080305367929  0.5612423443394766  0.4597663490471537
  0.6938414660097881  0.4336784761534117  0.5483162758156630
  0.6603982688270522  0.3755936479517566  0.3819578811590686
  0.8838149517482036  0.5500942407119194  0.5792574193101819
  0.3479968824587328  0.3611578973470309  0.7860698676150785
  0.7204577981987776  0.7060580334949350  0.3651855238352772
  0.5070259079752177  0.6333218388213506  0.3219319766368998
  0.8777995193519250  0.4065583107289146  0.4340503435397006
  0.6146863574617111  0.5465606468710403  0.8681549015365048
  0.6082848675742820  0.4240195548199222  0.7543410286807695
  0.8252469630629977  0.5504436985974256  0.6548583591560595
  0.0036804129417093  0.4769431653706184  0.7464404250985613
  0.5289175469371032  0.3338885950170550  0.1025628134699094
  0.6253612679908789  0.6544794996828138  0.7238262376724220
  0.5411343973668626  0.5393902268550181  0.6346429720011616
  0.8056000274163473  0.4077114847448043  0.8482112834461416
  0.5646779324533113  0.7654385958561700  0.1478525568085417
  0.8030418840141833  0.7584445892484369  0.0192237878122187
  0.9074778434192464  0.5977803314093763  0.0635208718368194
  0.2927087349122257  0.9017251239317601  0.4296277101059238
  0.3720725284455031  0.6885281952645803  0.1891803753753767
  0.6546301042926048  0.9744671292428642  0.1678931219997487
  0.6236018058090556  0.8708190082874019  0.0101275918111679
  0.7756942778553820  0.7990832812302263  0.2059837676335821
  0.6320687161696937  0.0099359087336846  0.4953244792503735
  0.5951050149040985  0.8234570210852804  0.4456838662267452
  0.8243966892585746  0.8458546898439957  0.3897374412606529
  0.8920071105373772  0.8934269865501717  0.6305000277856417
  0.4182609915146189  0.5837692882106821  0.7803684681719758
  0.4279375912983926  0.8042120400174269  0.3172169149814530
  0.1538040866032616  0.7751474251439578  0.3792200478211331
  0.7617844074562701  0.7524003341589428  0.5414416114642364
  0.5243902812302494  0.8799225690049595  0.8469636287188166
  0.5735396007877068  0.7199964776704554  0.8897227049413317
  0.7266144716388784  0.7935566396352017  0.7601196515292417
  0.8726812550668177  0.9651971987909513  0.1033087353119556
  0.4460528940950305  0.6164518064194403  0.9891846648530913
  0.7356113449516137  0.9693139257417837  0.8499241292963206
  0.6298619442808296  0.9209010301979156  0.6519701409254889
  0.7948112672483199  0.6599462669948595  0.8478378099052726
  0.9970607088879109  0.1915395785110929  0.3394442433888057
  0.3283304043952543  0.0900756597269643  0.2280719234692286
  0.9492836759481713  0.2910349028743300  0.6608259976553393
  0.2677618967511443  0.0783284038844178  0.4945492502003848
  0.0316608270596727  0.1575763082734777  0.9513516596825915
  0.3538566864793576  0.0282381988479030  0.9281041694565237
  0.0283599692123004  0.6266478051169905  0.2597020088749921
  0.2378780603799299  0.3919544497432210  0.0762208482573090
  0.0883173176277228  0.7037613282560387  0.6797788940550517
  0.3293343957668963  0.4235158884175017  0.5266165019317246
  0.1393924422479866  0.6620373630795438  0.9748421059511110
  0.2453012048401081  0.4038858763580023  0.8571330191170289
  0.0451561900303789  0.0141354263425557  0.3916714136132881
  0.1264876027288808  0.7667172586141412  0.1479515783806516
  0.9937639131770195  0.9479450450971482  0.5778565884011104
  0.2822712052683612  0.6916700153660784  0.5361208141552789
  0.0048998351898962  0.9845098220602799  0.0549267271018178
  0.2758969731570318  0.8211508321568618  0.7635527208652365
  0.5556641341213026  0.3299397134158463  0.3298273410340012
  0.7835105830781228  0.0151662998791355  0.1784767431522267
  0.3897409727541886  0.2692188098499112  0.7455081756952368
  0.7785156446461529  0.1911840253120674  0.5558350513579180
  0.5470073281516620  0.2866218500053498  0.0007469379691733
  0.7534561060095031  0.0687786839637098  0.8467892965667485
  0.4195692828153280  0.6072897445361226  0.2416788756037235
  0.8001640642231439  0.3776229301383692  0.1397928118573581
  0.5781587282409316  0.4899607301517351  0.5387878890200369
  0.7462467355087480  0.3697090510418674  0.4676266676837845
  0.5656136441318669  0.5610009717565327  0.9771393674491149
  0.6840211587311994  0.3621794120337808  0.8180922102292124
  0.5231687395600565  0.9751663548937414  0.2209537457091654
  0.7838704502736455  0.7095515860627704  0.2570971191776699
  0.5489374307707157  0.9723684393108767  0.5856202371042387
  0.7255627506228420  0.7850134734947344  0.4416571258455504
  0.4981493943340107  0.8775594378905878  0.9611821159469304
  0.6819878910286767  0.7060944329412031  0.8099367720158882

  0.00000000E+00  0.00000000E+00  0.00000000E+00
  0.00000000E+00  0.00000000E+00  0.00000000E+00
  0.00000000E+00  0.00000000E+00  0.00000000E+00
  0.00000000E+00  0.00000000E+00  0.00000000E+00
  0.00000000E+00  0.00000000E+00  0.00000000E+00
  0.00000000E+00  0.00000000E+00  0.00000000E+00
  0.00000000E+00  0.00000000E+00  0.00000000E+00
  0.00000000E+00  0.00000000E+00  0.00000000E+00
  0.00000000E+00  0.00000000E+00  0.00000000E+00
  0.00000000E+00  0.00000000E+00  0.00000000E+00
  0.00000000E+00  0.00000000E+00  0.00000000E+00
  0.00000000E+00  0.00000000E+00  0.00000000E+00
  0.00000000E+00  0.00000000E+00  0.00000000E+00
  0.00000000E+00  0.00000000E+00  0.00000000E+00
  0.00000000E+00  0.00000000E+00  0.00000000E+00
  0.00000000E+00  0.00000000E+00  0.00000000E+00
  0.00000000E+00  0.00000000E+00  0.00000000E+00
  0.00000000E+00  0.00000000E+00  0.00000000E+00
  0.00000000E+00  0.00000000E+00  0.00000000E+00
  0.00000000E+00  0.00000000E+00  0.00000000E+00
  0.00000000E+00  0.00000000E+00  0.00000000E+00
  0.00000000E+00  0.00000000E+00  0.00000000E+00
  0.00000000E+00  0.00000000E+00  0.00000000E+00
  0.00000000E+00  0.00000000E+00  0.00000000E+00
  0.00000000E+00  0.00000000E+00  0.00000000E+00
  0.00000000E+00  0.00000000E+00  0.00000000E+00
  0.00000000E+00  0.00000000E+00  0.00000000E+00
  0.00000000E+00  0.00000000E+00  0.00000000E+00
  0.00000000E+00  0.00000000E+00  0.00000000E+00
  0.00000000E+00  0.00000000E+00  0.00000000E+00
  0.00000000E+00  0.00000000E+00  0.00000000E+00
  0.00000000E+00  0.00000000E+00  0.00000000E+00
  0.00000000E+00  0.00000000E+00  0.00000000E+00
  0.00000000E+00  0.00000000E+00  0.00000000E+00
  0.00000000E+00  0.00000000E+00  0.00000000E+00
  0.00000000E+00  0.00000000E+00  0.00000000E+00
  0.00000000E+00  0.00000000E+00  0.00000000E+00
  0.00000000E+00  0.00000000E+00  0.00000000E+00
  0.00000000E+00  0.00000000E+00  0.00000000E+00
  0.00000000E+00  0.00000000E+00  0.00000000E+00
  0.00000000E+00  0.00000000E+00  0.00000000E+00
  0.00000000E+00  0.00000000E+00  0.00000000E+00
  0.00000000E+00  0.00000000E+00  0.00000000E+00
  0.00000000E+00  0.00000000E+00  0.00000000E+00
  0.00000000E+00  0.00000000E+00  0.00000000E+00
  0.00000000E+00  0.00000000E+00  0.00000000E+00
  0.00000000E+00  0.00000000E+00  0.00000000E+00
  0.00000000E+00  0.00000000E+00  0.00000000E+00
  0.00000000E+00  0.00000000E+00  0.00000000E+00
  0.00000000E+00  0.00000000E+00  0.00000000E+00
  0.00000000E+00  0.00000000E+00  0.00000000E+00
  0.00000000E+00  0.00000000E+00  0.00000000E+00
  0.00000000E+00  0.00000000E+00  0.00000000E+00
  0.00000000E+00  0.00000000E+00  0.00000000E+00
  0.00000000E+00  0.00000000E+00  0.00000000E+00
  0.00000000E+00  0.00000000E+00  0.00000000E+00
  0.00000000E+00  0.00000000E+00  0.00000000E+00
  0.00000000E+00  0.00000000E+00  0.00000000E+00
  0.00000000E+00  0.00000000E+00  0.00000000E+00
  0.00000000E+00  0.00000000E+00  0.00000000E+00
  0.00000000E+00  0.00000000E+00  0.00000000E+00
  0.00000000E+00  0.00000000E+00  0.00000000E+00
  0.00000000E+00  0.00000000E+00  0.00000000E+00
  0.00000000E+00  0.00000000E+00  0.00000000E+00
  0.00000000E+00  0.00000000E+00  0.00000000E+00
  0.00000000E+00  0.00000000E+00  0.00000000E+00
  0.00000000E+00  0.00000000E+00  0.00000000E+00
  0.00000000E+00  0.00000000E+00  0.00000000E+00
  0.00000000E+00  0.00000000E+00  0.00000000E+00
  0.00000000E+00  0.00000000E+00  0.00000000E+00
  0.00000000E+00  0.00000000E+00  0.00000000E+00
  0.00000000E+00  0.00000000E+00  0.00000000E+00
  0.00000000E+00  0.00000000E+00  0.00000000E+00
  0.00000000E+00  0.00000000E+00  0.00000000E+00
  0.00000000E+00  0.00000000E+00  0.00000000E+00
  0.00000000E+00  0.00000000E+00  0.00000000E+00
  0.00000000E+00  0.00000000E+00  0.00000000E+00
  0.00000000E+00  0.00000000E+00  0.00000000E+00
  0.00000000E+00  0.00000000E+00  0.00000000E+00
  0.00000000E+00  0.00000000E+00  0.00000000E+00
  0.00000000E+00  0.00000000E+00  0.00000000E+00
  0.00000000E+00  0.00000000E+00  0.00000000E+00
  0.00000000E+00  0.00000000E+00  0.00000000E+00
  0.00000000E+00  0.00000000E+00  0.00000000E+00
  0.00000000E+00  0.00000000E+00  0.00000000E+00
  0.00000000E+00  0.00000000E+00  0.00000000E+00
  0.00000000E+00  0.00000000E+00  0.00000000E+00
  0.00000000E+00  0.00000000E+00  0.00000000E+00
  0.00000000E+00  0.00000000E+00  0.00000000E+00
  0.00000000E+00  0.00000000E+00  0.00000000E+00
  0.00000000E+00  0.00000000E+00  0.00000000E+00
  0.00000000E+00  0.00000000E+00  0.00000000E+00
  0.00000000E+00  0.00000000E+00  0.00000000E+00
  0.00000000E+00  0.00000000E+00  0.00000000E+00
  0.00000000E+00  0.00000000E+00  0.00000000E+00
  0.00000000E+00  0.00000000E+00  0.00000000E+00
  0.00000000E+00  0.00000000E+00  0.00000000E+00
  0.00000000E+00  0.00000000E+00  0.00000000E+00
  0.00000000E+00  0.00000000E+00  0.00000000E+00
  0.00000000E+00  0.00000000E+00  0.00000000E+00
  0.00000000E+00  0.00000000E+00  0.00000000E+00
  0.00000000E+00  0.00000000E+00  0.00000000E+00
  0.00000000E+00  0.00000000E+00  0.00000000E+00
  0.00000000E+00  0.00000000E+00  0.00000000E+00
  0.00000000E+00  0.00000000E+00  0.00000000E+00
  0.00000000E+00  0.00000000E+00  0.00000000E+00
  0.00000000E+00  0.00000000E+00  0.00000000E+00
  0.00000000E+00  0.00000000E+00  0.00000000E+00
  0.00000000E+00  0.00000000E+00  0.00000000E+00
  0.00000000E+00  0.00000000E+00  0.00000000E+00
  0.00000000E+00  0.00000000E+00  0.00000000E+00
  0.00000000E+00  0.00000000E+00  0.00000000E+00
  0.00000000E+00  0.00000000E+00  0.00000000E+00
  0.00000000E+00  0.00000000E+00  0.00000000E+00
  0.00000000E+00  0.00000000E+00  0.00000000E+00
  0.00000000E+00  0.00000000E+00  0.00000000E+00
  0.00000000E+00  0.00000000E+00  0.00000000E+00
  0.00000000E+00  0.00000000E+00  0.00000000E+00
  0.00000000E+00  0.00000000E+00  0.00000000E+00
  0.00000000E+00  0.00000000E+00  0.00000000E+00
  0.00000000E+00  0.00000000E+00  0.00000000E+00
  0.00000000E+00  0.00000000E+00  0.00000000E+00
  0.00000000E+00  0.00000000E+00  0.00000000E+00
  0.00000000E+00  0.00000000E+00  0.00000000E+00
  0.00000000E+00  0.00000000E+00  0.00000000E+00
  0.00000000E+00  0.00000000E+00  0.00000000E+00
  0.00000000E+00  0.00000000E+00  0.00000000E+00
  0.00000000E+00  0.00000000E+00  0.00000000E+00
  0.00000000E+00  0.00000000E+00  0.00000000E+00
  0.00000000E+00  0.00000000E+00  0.00000000E+00
  0.00000000E+00  0.00000000E+00  0.00000000E+00
  0.00000000E+00  0.00000000E+00  0.00000000E+00
  0.00000000E+00  0.00000000E+00  0.00000000E+00
  0.00000000E+00  0.00000000E+00  0.00000000E+00
  0.00000000E+00  0.00000000E+00  0.00000000E+00
  0.00000000E+00  0.00000000E+00  0.00000000E+00
  0.00000000E+00  0.00000000E+00  0.00000000E+00
  0.00000000E+00  0.00000000E+00  0.00000000E+00
  0.00000000E+00  0.00000000E+00  0.00000000E+00
  0.00000000E+00  0.00000000E+00  0.00000000E+00
  0.00000000E+00  0.00000000E+00  0.00000000E+00
  0.00000000E+00  0.00000000E+00  0.00000000E+00
  0.00000000E+00  0.00000000E+00  0.00000000E+00
  0.00000000E+00  0.00000000E+00  0.00000000E+00
  0.00000000E+00  0.00000000E+00  0.00000000E+00
  0.00000000E+00  0.00000000E+00  0.00000000E+00
  0.00000000E+00  0.00000000E+00  0.00000000E+00
  0.00000000E+00  0.00000000E+00  0.00000000E+00
  0.00000000E+00  0.00000000E+00  0.00000000E+00
  0.00000000E+00  0.00000000E+00  0.00000000E+00
  0.00000000E+00  0.00000000E+00  0.00000000E+00
  0.00000000E+00  0.00000000E+00  0.00000000E+00
  0.00000000E+00  0.00000000E+00  0.00000000E+00
  0.00000000E+00  0.00000000E+00  0.00000000E+00
  0.00000000E+00  0.00000000E+00  0.00000000E+00
  0.00000000E+00  0.00000000E+00  0.00000000E+00
  0.00000000E+00  0.00000000E+00  0.00000000E+00
  0.00000000E+00  0.00000000E+00  0.00000000E+00
  0.00000000E+00  0.00000000E+00  0.00000000E+00
  0.00000000E+00  0.00000000E+00  0.00000000E+00
  0.00000000E+00  0.00000000E+00  0.00000000E+00
  0.00000000E+00  0.00000000E+00  0.00000000E+00
  0.00000000E+00  0.00000000E+00  0.00000000E+00
  0.00000000E+00  0.00000000E+00  0.00000000E+00
  0.00000000E+00  0.00000000E+00  0.00000000E+00
  0.00000000E+00  0.00000000E+00  0.00000000E+00
  0.00000000E+00  0.00000000E+00  0.00000000E+00
  0.00000000E+00  0.00000000E+00  0.00000000E+00
  0.00000000E+00  0.00000000E+00  0.00000000E+00
  0.00000000E+00  0.00000000E+00  0.00000000E+00
  0.00000000E+00  0.00000000E+00  0.00000000E+00
  0.00000000E+00  0.00000000E+00  0.00000000E+00
  0.00000000E+00  0.00000000E+00  0.00000000E+00
  0.00000000E+00  0.00000000E+00  0.00000000E+00
  0.00000000E+00  0.00000000E+00  0.00000000E+00
  0.00000000E+00  0.00000000E+00  0.00000000E+00
  0.00000000E+00  0.00000000E+00  0.00000000E+00
  0.00000000E+00  0.00000000E+00  0.00000000E+00
  0.00000000E+00  0.00000000E+00  0.00000000E+00
  0.00000000E+00  0.00000000E+00  0.00000000E+00
  0.00000000E+00  0.00000000E+00  0.00000000E+00
  0.00000000E+00  0.00000000E+00  0.00000000E+00
  0.00000000E+00  0.00000000E+00  0.00000000E+00
  0.00000000E+00  0.00000000E+00  0.00000000E+00
  0.00000000E+00  0.00000000E+00  0.00000000E+00
  0.00000000E+00  0.00000000E+00  0.00000000E+00
  0.00000000E+00  0.00000000E+00  0.00000000E+00
  0.00000000E+00  0.00000000E+00  0.00000000E+00
  0.00000000E+00  0.00000000E+00  0.00000000E+00
  0.00000000E+00  0.00000000E+00  0.00000000E+00
  0.00000000E+00  0.00000000E+00  0.00000000E+00
  0.00000000E+00  0.00000000E+00  0.00000000E+00
  0.00000000E+00  0.00000000E+00  0.00000000E+00
  0.00000000E+00  0.00000000E+00  0.00000000E+00
  0.00000000E+00  0.00000000E+00  0.00000000E+00
  0.00000000E+00  0.00000000E+00  0.00000000E+00
  0.00000000E+00  0.00000000E+00  0.00000000E+00
  0.00000000E+00  0.00000000E+00  0.00000000E+00
  0.00000000E+00  0.00000000E+00  0.00000000E+00
  0.00000000E+00  0.00000000E+00  0.00000000E+00
  0.00000000E+00  0.00000000E+00  0.00000000E+00
  0.00000000E+00  0.00000000E+00  0.00000000E+00
  0.00000000E+00  0.00000000E+00  0.00000000E+00
  0.00000000E+00  0.00000000E+00  0.00000000E+00
  0.00000000E+00  0.00000000E+00  0.00000000E+00
  0.00000000E+00  0.00000000E+00  0.00000000E+00
  0.00000000E+00  0.00000000E+00  0.00000000E+00
  0.00000000E+00  0.00000000E+00  0.00000000E+00
  0.00000000E+00  0.00000000E+00  0.00000000E+00
  0.00000000E+00  0.00000000E+00  0.00000000E+00
  0.00000000E+00  0.00000000E+00  0.00000000E+00
  0.00000000E+00  0.00000000E+00  0.00000000E+00
  0.00000000E+00  0.00000000E+00  0.00000000E+00
  0.00000000E+00  0.00000000E+00  0.00000000E+00
  0.00000000E+00  0.00000000E+00  0.00000000E+00
  0.00000000E+00  0.00000000E+00  0.00000000E+00
