   939
 Wannier centres, written by Wannier90 on10Sep2026 at 11:23:18 
X          6.07872041       3.78750723      11.97998804
X         11.39101205      15.47330525      12.42784097
X          0.65061312       7.67442486      10.38723834
X          4.99722798      12.67618224       4.77402143
X          1.26209636      14.55356033      14.15096240
X          3.32079251      14.31619215       6.09604698
X          1.58582795       8.41976037       7.31558578
X          5.09577549       9.41396666      11.56959366
X          6.46391730       2.69891359       7.09767922
X          9.86814829       5.78921714       3.86495810
X          3.58425087      14.85763033       6.23351115
X          4.95178022      10.06341082       0.24914290
X          3.38564355       2.67293778       4.67630661
X          6.89883072       3.01946432       0.58319792
X          6.62821226      12.22238822       2.58067259
X          9.40215184      12.31691247       0.65941903
X          1.78974081       9.23135793       0.74813973
X          5.97173501      15.41453184       5.14137809
X          1.37928181       5.88278210       6.74307788
X          5.12393391       4.29792632      13.75037444
X          8.61387408      15.39034971      12.49120363
X          6.31807006       5.33141366       1.78214666
X          5.94615619      10.48474922       4.79114035
X          8.13383152       2.22587779       9.18730433
X          3.43138883      14.09509289      12.46969356
X         10.96104360       4.56754012      11.55776121
X          7.68275351      10.54696826      10.36150543
X          5.58490633       0.88518928       9.27596880
X          3.27544105       5.13575776       4.49717718
X          1.09899030      10.11786001       5.25689995
X          5.85625628       7.38972802       0.26382054
X          4.91573314      13.11233722      14.23878688
X          2.75009746       0.14231569      13.80281683
X         11.72137463       7.38495953      11.24217814
X         11.55240141       0.60230755       9.31608972
X          8.97157440       8.32627953       5.42360146
X         10.25527840       1.68258055      11.30615064
X         11.53502479       7.89937572      13.60720379
X          0.98816693       0.10110044       2.07006008
X          3.50217214       3.11321985      10.69462443
X          1.12380257       6.73802792       1.67532667
X          0.75356091      10.63863730      12.66144161
X          7.54632673       7.09854525       2.44134976
X          7.68379645       8.68025682      12.58906635
X          6.41542124      12.20728590       2.04259669
X          6.09828014      14.25289999      12.24182518
X         10.46384828       9.88081259       1.42547846
X          4.10797271      11.09779273       2.65712203
X          4.73570858      13.12151905       4.57047692
X          0.82728510       3.84282413       3.55676703
X         10.88516642       3.80142739      14.18945294
X          5.10365125       0.29816963      11.74626327
X          3.76515763      10.12204434       6.30130633
X          7.39695827       6.77015986      10.71926343
X          9.16117087       1.43845907      14.05847650
X          8.63399078       4.55688496      10.77736646
X          6.80711324       4.10783320       3.86597211
X          4.44357015      12.61605691       7.40129058
X          7.21836556      14.27883312       0.48209304
X          5.58383655       1.24621728       3.00504474
X          9.51535860       6.79896692      12.24917272
X          8.01283630       9.79243381       0.44687162
X         10.39745791       6.08490276       9.16203065
X          3.30622431       0.08851810       8.39830066
X         11.13066778       8.66680427       3.21251917
X          9.13576585      13.09251176       3.25071580
X          8.40548463      11.08913100       5.54199927
X          4.90979960       1.81822344      14.23093535
X          3.66506673       7.26500110       2.08907002
X          4.43063270       1.10796446       5.94042416
X          9.51101066      12.23374119      14.52030201
X          7.06163402      11.83808297      13.02611564
X          9.92493306       3.84361602       5.11989178
X          5.25315808       4.55597708       5.70852455
X          7.17980038       9.18836554       6.95900493
X          1.45928573      14.20305516       7.87172670
X          9.24459895       8.75031420       5.20520466
X          1.49686846       4.46388211       9.35362343
X          9.74315221       7.44215861       1.51821195
X          9.43035014      10.34107717      12.44091314
X          8.89426428       1.94877543       2.29328800
X          8.04780014      10.33878388       3.24290957
X          3.27477885       2.49927554       1.83152578
X          5.32822171      14.64362516       2.37520380
X          7.60788597      14.67656200       9.31068474
X          3.00526926      15.92900147       3.73679513
X          2.60742358       8.09724507      11.87305335
X          1.09309957       5.79602255       7.25832444
X          3.81359917      14.64782676       9.96706089
X          3.13607760       7.52418284       8.80347487
X          0.57578474      12.61340914       5.98815963
X         10.68320611      15.87729284       7.04276740
X          7.71158176       1.52203961       4.82299049
X          1.09251831       8.60407682       7.08701499
X          0.68376954       3.35745446       6.40055065
X          3.49921961      10.73819900      12.86239633
X          2.76681622       5.31510379       4.39080926
X          4.12208423      10.08068573       9.09571731
X         10.82878397      11.68985525      10.02542157
X          4.83719187      12.10262418      11.52878855
X          8.35774973       7.13215624       8.16983687
X          8.70383287      11.93396452       8.02522053
X          7.58448634       1.48295120      11.69468814
X          1.01870859      15.05525462       4.34629171
X          1.81374220      11.53111570       8.09109217
X          9.72763854       2.22778448       7.15188422
X         10.34252076      14.63859393       9.12045257
X          3.67420266       8.52899455       4.18473201
X          7.74753934       1.95434483       5.18505479
X          9.79762816      13.53177533       5.98502076
X          1.83203543       5.41998684      12.31827671
X         10.31116014       6.30239192       6.50679429
X          3.66357657       2.98151314       7.42316007
X          5.71602409       4.40466791       9.30850051
X          5.76033751       9.00911404       2.40431369
X          9.78189141      15.56874800       1.59838853
X          1.78557483      10.80111718       2.75372440
X          9.55785300       8.86868048       9.87004036
X          2.37517847       0.33911146      11.14103753
X          1.30525926      12.18132858       0.36997564
X          2.27373154       3.44065425      13.80222854
X          5.67520566       6.78101703       7.33170035
X          6.58877390      13.38681276       6.36632884
X          3.35144553       5.04243932       7.64594750
X         11.26867500       1.43126422       4.96645863
X          6.37346334       8.98139886       9.24373996
X         10.48490543       3.21178068       9.31228012
X          7.74262594       0.13833129       7.22921853
X          4.53751578       6.00383877      11.38683594
X          4.82685589      15.66102598       0.20539467
X          0.73589280       7.64817055      13.16749359
X          0.15617711      13.48097420       2.91040867
X          8.81199332      12.84819933      11.31590694
X          7.44578878      15.80058728       2.38178308
X          0.68071650       6.47335916       4.63389585
X          3.46404862       7.16518748       5.86745628
X          3.27040765      13.11702798       2.56798714
X          9.44717290      16.02445234       4.66170192
X          6.05329424       2.39841076       7.38113511
X          1.76222397       9.74319835      10.09631742
X          2.17903664      12.47280305       5.34249143
X         10.63214828      11.41649780       4.33158563
X          5.77888528       6.68064340       4.27571060
X          8.83076095       4.49794454       2.10139696
X          1.98091461       7.60260582       4.25022584
X          1.32238247       2.28138550      11.98319490
X          7.20181604       0.39067524       7.16859064
X          2.26227680      15.94197296      11.31183624
X          5.17721594       9.70603678      11.12226003
X          3.89704608       6.56355780      13.81815187
X          7.83631735       6.10289348       5.48353586
X          2.52541890       4.84856549       1.48560203
X          2.15464269      12.38964910      10.79726121
X         11.73017503      15.67614820      11.90739158
X          0.47444826      14.99767959       4.53705399
X          4.96791672      14.78461245       7.84358450
X          2.82803538       4.55755543       1.95481184
X          4.78208745       0.68482319      11.89694991
X          7.48319593       5.70326492      13.42738145
X         10.46101278       8.82566062       8.38153775
X         10.04747073       9.47302276       1.43492499
X          5.79316796       5.26476447       1.77415505
X          8.52323144       4.59966462       7.71539322
X         11.64228132       1.12782083      14.38727427
X          5.24194353       4.98931225       5.99391628
X          3.00720035       8.06359566      11.46907775
X          9.54725332      13.60358194       5.52400091
X          1.01866313       2.62322405      11.71492514
X          8.78210750      12.65401414      10.82911155
X          6.46950715      13.89781585      12.17407995
X          1.87300810       5.44481731      11.80228699
X          4.58375387      12.02575150      11.03937501
X          1.35318098      15.80321704       2.06782366
X          5.62049677      14.77334018       8.02430785
X         11.07993068       8.51183769       3.79980856
X          9.26463614      15.70701111       4.24482045
X          2.72723420      13.45125342       2.73999955
X          4.69392438      12.77939639       0.26751369
X          4.56401556      10.46842105       9.03634504
X          8.47096651       4.47695719      11.28755134
X         10.27866136      14.10873401       9.39253338
X          0.75016649       0.68772110       8.98984780
X          1.80365518       0.99005940       6.50528728
X          9.49090427       1.72770098       6.94338295
X          5.74359029       3.47869876      11.66094807
X          3.30665859       2.48320377       7.28463075
X          5.71789824       6.53647833       3.70659962
X         10.28761971       6.72376683       6.80824205
X          8.81938865       2.00852579       2.87115548
X          2.12067352       9.87148908      10.44989659
X          1.66998336       5.99389983       7.23819005
X          5.12424294       4.61078427      14.19944865
X          4.87652109       1.89912971      13.69243996
X          6.99031200      12.97971043       6.71100468
X          9.02084054      11.93235971       0.76137649
X          3.50422137       2.16446529       2.34842944
X          7.57099282      14.85249557       9.85180570
X          8.39636220       9.89459891       3.15719149
X          6.46060833      11.47766259      12.97159148
X          1.14661712       3.78406869       6.42003833
X          3.48372286       7.83032320       9.12127460
X          7.86755555       9.36502645       0.79364975
X          4.10413437       4.90210474       7.70868094
X          0.81292534      14.49305255      13.84355293
X         11.50221515       4.66030070      11.47701498
X         10.14732194       6.25046659       3.79792938
X          2.04003656      14.47191967       7.93590523
X          9.71919657       3.35521330       4.98615919
X          2.06548086       0.59638095       6.63916137
X          9.08163022      12.26823862       8.28384817
X          6.68829393       9.09617136       6.82671485
X          3.21044893       0.27909533       3.46006086
X          7.95260855       7.15525600       2.80660246
X          0.65006609      10.35220015      13.11123743
X          3.71607991      14.31111429       9.41541556
X          3.35954779       8.95498330       4.55579824
X          0.93368194       3.38592031       3.34735130
X          2.16049173       2.92379598      13.66447196
X          1.46360013       4.20142997       8.86319561
X          5.47608990       9.65234864      14.10733660
X          3.24466847      11.17306514      13.09395151
X          3.51340636       7.16335421       6.51974829
X          3.62591129       6.94975095       2.53059772
X         10.03644845       1.21880291      11.11797230
X          9.88601036       7.13596098       1.10919120
X          7.37032602       4.03760793       3.89253204
X          2.82540292       0.44397809      13.34636637
X          7.36997320      10.19979065      10.68948288
X          3.16231828       3.54422825      10.91096184
X         10.09185853       6.42916840      12.37637625
X          3.58437753       2.33274028       4.19625382
X          4.29848462      12.42136008       7.89144985
X          0.55859237      13.04669729       2.66884639
X          6.75361940       8.59475714       8.99475751
X         10.90035581       6.24099271       8.95060753
X          8.85848758       4.24326199       1.47191717
X          4.60724410      10.84907738       2.77976537
X          7.37305214       9.11950824      12.65779618
X          9.59315399       1.56827806      13.77781316
X          3.01886623      13.76284961      12.41778460
X          5.99603296       8.84282748       2.85212642
X         10.72939078      10.85645109       4.40193935
X          3.40177200      10.50309963       6.48071932
X          1.17119676       6.54768401       1.19056475
X          7.68115138       1.85128426      12.05425860
X          6.66708241      14.07617276       0.38862084
X          3.53790122       0.41371177       8.96596673
X          5.64606176       6.71815294       7.82102393
X          7.57352828       5.45101363      12.94320065
X          0.07904549       0.77327881       0.09144405
X          6.36719588       9.94775089       4.85968084
X         11.43205820      11.74618194      10.03568332
X          8.85708480       4.13287208       7.66541093
X          5.47461257       3.98453795       8.98816169
X          7.57471861       6.67474630      11.27413419
X          9.02264851      15.59305534      12.20347728
X          2.06800070      12.71759320      10.44675348
X          8.17205824       2.73505892       8.93895594
X          8.57213688      11.47349031       5.13686659
X          1.50256612       9.67941874       0.45648422
X          0.78226500       9.69230163       5.19485256
X          7.55117102       6.27658106       5.83394323
X          4.90224348      14.72540577       2.67136874
X          4.30170646       1.05503308       6.50587653
X          9.04981304      10.76381857      12.33390102
X          5.86148605       0.61997830       9.64987336
X          6.87351332       3.60302525       0.68545529
X          9.01732164       8.39038338       4.85963666
X          3.46658192       6.75679972      13.93199280
X          6.32701169       7.66187716       0.35864285
X         11.49685988       7.84552193      10.99552779
X          7.60156794      15.43309122       2.68725552
X          4.92433508       9.21241299      11.06522344
X          5.28830526      13.04444135       4.49528467
X         11.16455277       3.26862289      14.07617424
X         11.26801077      15.99929680       6.88725528
X          4.20341308       5.81231573      11.06498747
X          8.66614424      12.85726024       2.84030123
X          9.48639709       6.54587068      12.68487267
X          1.93907923       3.13006926      14.09585566
X          8.10649372      11.44101314       5.39196187
X          6.07573027      15.62547144       4.55826220
X          0.40533857       1.28013279       4.76655332
X          5.64849929      15.23129759      14.12260699
X          1.53433732      11.00215078       3.15271870
X          7.60649205      13.92240269      14.30851863
X          8.67331587       4.89366848       1.76709918
X         11.24976255      11.27231940       9.95954619
X          9.10073334       1.62164694      13.51232058
X          9.81347691      15.86861012       2.05496844
X          2.34311700      11.32018189       8.13288093
X          0.98293308       7.21170047       1.22202048
X          3.72109492      14.06588185      10.09722307
X         11.09472875       4.77094838      11.02982649
X          9.53783970      10.81298517      12.70711015
X          1.02857958      11.89716040       0.68902773
X         10.40512672       7.40244414       1.42640976
X          5.01604684       1.13512075       3.06504125
X          1.64872657       9.19105100       0.23899253
X          0.87943779      14.99421660      14.16001869
X          9.99065457       3.35595167       9.02835779
X          8.25537635       6.73555334       7.76979194
X          3.54418171       6.28136304      14.14881736
X          7.49200177       3.37341195      14.43445307
X          8.05849424       7.40807479       2.36800823
X          1.05694266       9.88592207       4.74396072
X          5.46281280      13.17750177      14.17624932
X          0.95945439       4.39533974       9.16436029
X          8.09279766       1.69113027      11.72219570
X          5.43166767       8.92822820       2.87419630
X          0.46309279       0.54817974       9.52950322
X          7.29672692      13.22020355       6.35629096
X          7.21234998       8.67412485      12.93628688
X          9.10583403      12.05251348       7.74081768
X          0.88807664       3.43306543       3.90783643
X          5.98746355       9.82865442      14.25959307
X          0.89999302      15.86759411       1.65484628
X         11.20706694       3.53499904      14.55258015
X          5.22591560       6.98909621       7.59402567
X          7.04154275       6.68844107      11.08397453
X          3.11670714       8.04715485      11.98498960
X          3.43023248       0.64241213       8.22714344
X          3.20581895       9.85566112       6.36119856
X         10.02281913       1.29839251      11.69259504
X          3.11083402       5.47301274       4.01938266
X          3.23774243      13.93506517      11.93807918
X          4.50416395       1.53877339      13.90097196
X         10.51603484       3.58927203       8.97831391
X          7.17933466       9.06145187       6.29804777
X          1.67415126      10.26657322      10.28918135
X          5.79162738       0.34551920       9.14614992
X          7.91880252       5.90119472       5.99704200
X          5.41739268      14.77202531       2.91736623
X          2.57440976      12.95131609       2.42771775
X          7.01590874       4.14724243       4.33503747
X         10.30861154       3.42414454       5.16997275
X          6.10473431       2.22773238       6.69054038
X          1.19490153      10.52611673      13.06094880
X         10.69050106      11.08752675       3.93441202
X         10.25818545       9.72479964       0.91740956
X          8.69189304      12.86387695       3.47994516
X          2.17435669       5.86137945      12.15392392
X          5.66219703      10.05169034       4.89989994
X          6.25149895       8.45789823       9.11829487
X          7.25754062      16.00097720       7.26874867
X          3.41808704       0.19757244       3.93471290
X          6.41603574      14.16011762      12.67695738
X          7.14263580       5.27437709      13.41853987
X          4.04452770       5.84314836      11.60086375
X          7.02651005      11.63493017      12.51016105
X          8.87827341      15.94066790      12.60549716
X          5.89195056       7.97813279       0.36677192
X          1.37002029      14.74387685       7.93739348
X          9.24591058       2.14263111       7.34804336
X          7.19484458      15.78793966       2.88022397
X          3.54114055       7.69819372       8.52925443
X         10.16885951       6.75476402       6.22703998
X         10.77313177      14.35749327       9.11762085
X         11.28694597       9.08745677       3.62880937
X          9.27241572       1.81811153       2.63881138
X          7.64452385       2.45440987       9.07858848
X          4.55303995       0.33313164      11.33937258
X          5.76918561       4.00642530      11.49773356
X          5.79385609       6.12138673       4.24017084
X          3.98034695      12.24179814       7.48293616
X          9.97907592      15.33893548       1.99434092
X          2.27964080       0.92743808       6.29783127
X          2.56869522      12.51239171      10.48291941
X          8.27226556       4.91978754      11.07449483
X          7.44301194      15.19136319       9.36509554
X          5.36647164       4.43526127       6.38077064
X          3.34626647       2.72012363       7.75788238
X          0.71673590      13.57215574       2.72231742
X          3.55543064       6.75071339       1.96339461
X          7.61417530      10.75408348      10.88772443
X          9.85525855       5.98532612       3.33777572
X          6.08371046       5.28759932       1.25118278
X         11.30756516       1.27780665       5.47972220
X          5.42621123      14.59650429       7.35982248
X          3.82498949       7.46316326       6.17423858
X          0.87188064       2.40299870      12.27546383
X          7.52555019       9.76068142       0.67617489
X          4.28055772      10.98147025       3.17833800
X          3.30920912       0.14988684      13.53228666
X          8.02808952       1.45252135       5.28725342
X          5.57991726       4.27432408      14.13977382
X          3.85493274       2.77453639       4.43281716
X          3.74310611       3.46358720      11.04802644
X          1.86139855      11.04581227       8.11689006
X          5.04121641      12.27080632      11.00363300
X         10.80750591       5.70665864       9.25971504
X          8.44330718      12.44569867      11.27904491
X          0.88693726      14.90331094       4.84198441
X          6.85483864      12.72669071       2.13480435
X          1.23328148      10.69313975       2.84875310
X          7.97594443       6.83051257       8.25056241
X          4.08873640      10.49490057       8.63122807
X          4.43393212       0.62923189       6.15681221
X          3.50822637       8.99444035       3.92043785
X          1.48102358      12.08589372       0.92057685
X          1.30046999      12.53201722       5.45492736
X          5.48062389       0.68285087       3.12489183
X          9.26212995      13.36441744       6.01005253
X          4.06732316      14.31322381       6.17475472
X          1.26172706       7.95076461       7.02081320
X          0.76540159       1.33962948      14.10432219
X          9.44662370       0.01172849       4.05040968
X          3.78077538       5.59531845       7.66431269
X          8.53636912      10.42980627       3.47757458
X          3.22041640      10.70279860      13.39670988
X          8.11570842       6.80648280       2.41463496
X          1.30323184       7.08256269       4.69538924
X          3.00600436       2.13225083       2.17774661
X         11.08914144      15.52625518       7.13215670
X          0.66238156       3.62142185       5.91810136
X          9.84166995       8.90992943       8.98165593
X          0.77925883      15.24775632      11.94146096
X          6.47877899      15.46255631       4.92236648
X          5.46933376      15.83002867      13.95595759
X          3.00856626       5.03960939       1.53414438
X         11.21383462      11.48275902      10.41485818
X          0.61902371       8.11363480      12.60179895
X          2.91290692       7.58677404      11.83359590
X          8.88422190       1.44365971       2.63362226
X          4.07051593      10.59652662       9.15842614
X          5.30927958       4.21626225       9.64328902
X          8.49032063       4.37955228       7.29318737
X          0.80239161      15.43554418       4.78910115
X          7.56369449       9.42385685       0.28590129
X          6.60535577       8.56576338       9.73218958
X          7.06159912       4.55226163       4.01403245
X          9.77830191       6.42652786       6.63087676
X          5.13773810       0.45369867       9.65524789
X          1.39891756       6.87105973       4.37799163
X          8.40059671      13.01489720      11.05831244
X         10.60433407      14.57190205       9.55920410
X          3.99169583      12.83776890       7.66493868
X          7.15087940      10.72454980      10.45851459
X          2.92877447       0.35481595       3.88917325
X          1.03514915       3.25955467       6.04937273
X          5.81696342      10.11090447       4.38660308
X          1.32470916      14.90104396      13.47401131
X          9.55466965      10.75284638      12.13135396
X          2.83495916      13.41365723       2.24312760
X          8.73126183      12.41445547       7.78569446
X          9.65914841       1.84830662       7.46408777
X          7.07774482      13.48460552       6.78515973
X          8.08050788       4.30046613      10.86749511
X         10.52397423       3.31779873      14.51038376
X          9.76928487      15.69086351       4.27793360
X          0.36283557      13.44324915       2.38461846
X          1.31473970       0.05071448       1.69003606
X         10.80005294       1.14842495      11.31535980
X          7.12573658      14.80318480       9.47792249
X          7.27602071       1.44613954       5.41168677
X          5.96243837       7.46430529       0.95536018
X          9.03932150      12.49873980       3.31367130
X          7.81646025       2.71767022       9.66918296
X          9.60768577       6.21856018       3.75786936
X          3.65784236       3.64231961      10.57269929
X          5.54801779       9.21306431      11.19500352
X          0.20907286       8.61392714       3.11935290
X          0.66808650       8.10061056      11.06033338
X          5.15203151      12.64402529      13.93592060
X         10.78144360       6.20197633       9.49266383
X          4.53279074      12.54994298      11.19102348
X          3.59859586      10.17332863       6.83517443
X          7.02416221       8.66088584       6.93693609
X          4.09297694       6.94740908       2.18787644
X          1.30246635       4.00123383       9.38085160
X          7.33275856       0.17172818       7.69767196
X          4.85219626       3.96894762      14.29955937
X         11.09593215      15.88149078       7.49432452
X          4.16606987      14.28767313       9.84125104
X          3.07929714       2.70111035       2.48484514
X         11.18998869       1.28190851       0.61963218
X          1.88489145       0.33236218      10.80257312
X          5.11838836      15.47220618      14.01257443
X          8.59511088      15.85811395      12.16585453
X          5.23721258       6.49544047       4.15491064
X          3.02892851       3.11379002       7.42699161
X          1.88181704      11.31649523       8.59559908
X          9.45079355      13.90758345       5.97691812
X         10.10031629       3.61494725       4.70526155
X          3.58920601       7.30709566       8.86087865
X          0.53862098       0.14781739       8.91810386
X          1.62366377       6.80860985       1.37850430
X          9.19509735       4.79310962       1.82294753
X          1.46525885      11.26121590       2.65229917
X          8.12276077       9.98920699       3.77408233
X          3.98800090       9.11343913       4.16763485
X          0.93155579      10.01706520      12.62429985
X          5.49814621      10.36651990      13.85382359
X          4.53712939      11.61743521       2.85908463
X         10.08193912       8.64814293       9.12495240
X          6.22437460      16.08843175       5.18086258
X          3.22168071       7.74172899       6.12447499
X          1.53942692      14.41148187       8.33726044
X          8.70170054      12.53341985       0.94322568
X          2.57424837      15.88427492      13.12018044
X          7.15382529       8.67714697      12.09989698
X          7.54061528       2.10086624      11.45310546
X          7.55987315       3.25040566       0.58469679
X          5.14939569      13.32220318       5.23941138
X          5.98431643       5.98122058       1.74641779
X          3.69518844       5.25595220       8.11477486
X          2.99969477       0.49930047       8.55760034
X          5.87429139       3.91470111       9.56899222
X          7.39718065       5.78670706       5.59899610
X          8.89285336       4.73007389       7.36501199
X          2.59238589       3.07753413      14.12516885
X         11.60002366       7.27315326      13.13020636
X          7.21164081       7.35178256      11.03959454
X          2.76829909      14.41864920      12.35381804
X          6.40755493       3.52803704      11.32926091
X          1.42295892       5.84636071      12.08353312
X          5.84148814       7.21397716       7.65221380
X          1.54130735       9.65516769      10.69815674
X         10.75971256       9.15605509       1.26816148
X          5.74022653       8.29591168       2.48875029
X          2.97635839       4.35794874       1.24339106
X          5.44910180      15.17479000       7.70077257
X          5.74408750       4.78735984       5.80061685
X          1.35431053       3.70711778       3.56428505
X         10.33071690       3.71991552       9.44562810
X          7.82925215      15.95282168       2.76656698
X          5.11207362      14.06508438       2.71132915
X          3.48224620      14.44972735       7.02359170
X          1.47791329       9.50513489       5.29419161
X          6.60980680      14.40532682      12.17490308
X          9.86334522       6.85500461       1.62130869
X          3.97292754      11.04051312      13.25882888
X          5.37347251       1.11880178       3.45187629
X          9.28306969       2.13820904      14.15177173
X          7.86730661       7.22933553       7.91702469
X          0.89285965       1.96636168      11.72256068
X          4.47407997       5.42429061      11.32054459
X          3.31322864       3.07613332       4.05209379
X         10.33070920      15.69132591       1.68584197
X          9.31458369       6.26462522      12.21781330
X          2.04274515      12.16124785      10.28281360
X          8.45168177      11.66703384       5.76180785
X          1.24061948       7.24559895       4.32631506
X         11.48728468       1.84266443       5.29212796
X          2.76504108       0.16068900      10.72381920
X          7.25596493      13.66577346       0.72178969
X          7.66277837       5.25326703      13.49251802
X          5.03818454       0.97372977       6.20462171
X          1.76292143       8.57571756       6.52863783
X          4.43300170       2.34579419      14.15699361
X          1.44986377      11.64150099       0.44759363
X          1.42878663      12.74159175       5.75409985
X          1.11788127       9.00423648       0.65661509
X          4.65675507       0.20582966      12.09641237
X          7.17912205      11.32001082      12.91989572
X         10.17469037      11.11423778       4.19210858
X          3.46981086       6.40018947      13.50105637
X          5.73851881       3.09264897       7.20353566
X          5.87739441      12.57511870       2.52372638
X         11.16923851       5.25563889      11.68602339
X          8.54377881       8.82922495       5.16652674
X          1.75109988       0.58546200       6.12171739
X          0.87314682      15.57696652      12.12796979
X          2.98638708       4.72029138       3.92295778
X          1.41632698      12.35714358       5.77821914
X         10.16301633       9.01958950       9.17935635
X          1.75849243       4.99104004       7.20469676
X          2.22875705       8.42367875       5.41252699
X          0.52126176       7.22819395       4.34731275
X          0.98569089       8.87939072      11.73488222
X          6.23015513       1.15204972       5.96589761
X         11.31061091       6.29335108      12.42256723
X          5.64791955      10.93609977      10.10364046
X          7.89619448      13.06785130       1.60222718
X          8.80955433       3.10213587       0.68787630
X          4.04635061       0.29816507      10.19688475
X         10.14922471      10.65992743      14.06222394
X          7.50040321       9.47803587       5.15119840
X          9.02708365       0.46438382       6.27130702
X         11.48427481       7.10440301       7.91168417
X          2.03292273      14.93400844       3.11770794
X          7.81938252      14.58309061      11.28871020
X         10.43870910      14.13126406       4.32819591
X          8.71539070       8.81999676       2.02847272
X          8.51139595       3.06925025       4.00528418
X          6.83288534       8.53290164      10.99005219
X          2.10271248       4.27914768       7.28340279
X          5.20042598      11.34908048      13.25035883
X         10.39875637       7.43652466       4.79943456
X          8.52122050       3.06483207       4.01550061
X          5.64163659      10.89374433      10.11487607
X          5.33708675      13.84287461       6.13862771
X          9.79647688      12.68731393       9.53077809
X         10.45329798      14.10167367       4.34049719
X          3.39934243       3.28247794       0.40335112
X          5.11753357       3.90495385       7.50761203
X          2.02999192      14.95030923       3.06122676
X          5.86987579       7.08146900       2.12865864
X          9.78768786      12.69961803       9.51786899
X          6.84168375       8.54567598      10.98955884
X          3.39702575       3.29613320       0.42487564
X          7.51887184       9.52141792       5.16385369
X          5.19972606      11.34789121      13.24913686
X          3.42291778      14.39148514       7.93628571
X          5.14225487       3.92012881       7.51243501
X          3.54795346       8.88095189      10.17220984
X          4.77106014      12.82790493       2.81586723
X          5.32972469      13.81490275       6.14802719
X          1.78586642       3.91925215      11.06898536
X          7.84431193      14.52952110      11.28722025
X          9.02978335       0.48579176       6.26940296
X          0.20735448       8.20592696       0.96057435
X          8.68288875       8.81997165       1.98027216
X          1.90124113      15.23788723      12.51583386
X         11.51497569       7.09150651       7.92649741
X          2.08358817       4.27158018       7.30840153
X          0.53558965       0.85536587      10.77755614
X          7.24045172       3.14484111      10.64713793
X          0.58789159       0.84586551      10.78356234
X         10.14671257      10.65424360      14.06390105
X          1.77260757       3.93617305      11.08137057
X          5.86018797       7.07293091       2.14045683
X          8.81461652       3.08944726       0.72574114
X          3.53850767       8.91037832      10.16147826
X         11.31868802       6.32493112      12.37598170
X          0.20838404       8.20688212       0.97081553
X          3.42798354      14.37636459       7.93922551
X          2.00555441      14.93626147       3.09361411
X          3.58241315       8.87993451      10.16989987
X          3.78832409       6.89105029       4.19057162
X          7.89362263      13.04408793       1.59366843
X          0.19757312       8.18571311       0.90161887
X          7.51023699       9.51279745       5.16723671
X          9.83420918      12.68933015       9.49742755
X          7.83176907      14.54335010      11.31673250
X          4.05370637       0.25402437      10.19150450
X          7.25267772       3.14062436      10.65101413
X          8.81332415       3.08819084       0.71134299
X          8.50458322       3.08004036       4.04716413
X          4.76801890      12.83229605       2.82198732
X          3.78291020       6.89648726       4.18283285
X         10.43841531      14.13273580       4.33238718
X          9.03320389       0.47748071       6.27851131
X          1.76533000       3.88693288      11.05652576
X          2.43408559       8.89724096       5.79804600
X         10.13771928      10.66719909      14.06662913
X         11.31898883       6.32466666      12.37766782
X          8.68179181       8.83080251       2.01315809
X          7.89685036      13.05609295       1.60538212
X         10.32351979       7.45904482       4.77182390
X          6.87840422       8.55146394      10.97715489
X          2.75191920       3.82795869       3.31563985
X          5.20353998      11.34092310      13.21258633
X          1.04189250       8.86965314      11.74201988
X          7.22649343       3.11842124      10.62433806
X          6.25274867       1.10113587       5.96248006
X          5.62231319      10.88274180      10.14148480
X          1.89089027      15.23188485      12.51699941
X          4.78271200      12.85447767       2.87946914
X          2.76009604       3.80887387       3.30484550
X         11.52228900       7.12305093       7.86188239
X          6.25167017       1.09906188       5.98079284
X          4.04541275       0.25911959      10.19755929
X          5.12809502       3.87534721       7.50497612
X          5.32284373      13.82071692       6.14711270
X          2.43818528       8.90928712       5.79017626
X          1.02193595       8.86923267      11.73514621
X         10.41008722       7.41276472       4.77486485
X          2.07549463       4.27160829       7.31854016
X          3.42131268      14.36599599       7.93754048
X          3.40943853       3.28302522       0.45557127
X          5.86984705       7.07991133       2.12742344
X          9.80762751      12.68757994       9.49697706
X          3.74614534       6.91271155       4.19358387
X         10.42362127      14.11723668       4.31745460
X          8.47131321       3.04241776       4.05899022
X          9.03864949       0.50219649       6.25577321
X          2.00569599      14.95015622       3.09020190
X         10.10668199      10.68528608      14.14688721
X          1.72201993       3.95879028      11.08572098
X          8.52470212       3.04771459       4.03308497
X          8.72807210       8.82712325       1.97758015
X          3.53580931       8.88717337      10.17068941
X          2.43505852       8.89267447       5.78847240
X          1.89055901      15.23026220      12.53324553
X          7.51385172       9.51349500       5.15952205
X          6.84545163       8.54005472      10.99206348
X          3.55160665       8.88877682      10.16641400
X          1.02242065       8.85687384      11.74898559
X          5.63487553      10.89816517      10.13520887
X          4.77708424      12.83203903       2.80945911
X         10.44536384      14.15426753       4.31772082
X          3.75321042       6.83443231       4.17660190
X          6.24343652       1.10172206       5.94710797
X          8.66959778       8.82759862       1.99395638
X          1.78162709       3.91843263      11.06492863
X          9.00507026       0.47663415       6.25952034
X          0.54301238       0.84236305      10.77318024
X          7.83691878      14.54651131      11.28714798
X         11.49110134       7.10037299       7.89675823
X          2.74996320       3.82150424       3.29596012
X          5.19008771      11.35342679      13.24419856
X          2.00496419      14.94026080       3.06921930
X          7.25616447       3.12693739      10.65121333
X          5.63945854      10.89976049      10.16227485
X          0.20799812       8.20608479       0.96508102
X          4.05183768       0.25515318      10.19463089
X          5.33128356      13.81498157       6.14723905
X          3.39998899       3.25977504       0.42106105
X          5.86945754       7.08263083       2.12785204
X         11.31818986       6.33004903      12.38004552
X         10.36340950       7.42747695       4.76643627
X          2.07945886       4.26141401       7.31438770
X          8.81478481       3.07550022       0.70778200
X          9.83858141      12.69707426       9.53332791
X          5.10063238       3.89984294       7.50923573
X          3.42521854      14.37822169       7.93067627
X          7.79116971      13.05177756       1.64825242
X         10.17248713      10.62916524      14.07771590
X          0.57910180       0.75913578      10.83338576
X          2.80047082       3.91739085       3.31196575
X          0.31276943       6.94420797       7.45346950
X          7.86559175      14.57311938      11.28002395
Fe         2.75754980       3.82392190       3.30607950
Fe         6.24993350       1.10443550       5.96410830
Fe         2.08344490       4.27109220       7.31041200
Fe         4.05355160       0.26088860      10.19324070
Fe         1.77520850       3.91979610      11.06567960
Fe         3.40121890       3.28139810       0.42736750
Fe         0.20682110       8.20560060       0.96518360
Fe         3.78339020       6.89450910       4.18452850
Fe         2.43490780       8.90284540       5.79228070
Fe         3.54718050       8.88953230      10.16734920
Fe         1.02363490       8.86582870      11.73832830
Fe         5.87118790       7.07869540       2.12788510
Fe         2.00939760      14.94702680       3.08725340
Fe         4.76938780      12.83219700       2.81260370
Fe         3.42543440      14.37832720       7.93639060
Fe         5.63293970      10.89205410      10.13781420
Fe         1.88792560      15.23448680      12.52452100
Fe         5.19864260      11.35003420      13.24483360
Fe         8.51424950       3.06791500       4.02573390
Fe         9.02438550       0.48870700       6.26768980
Fe         5.11691130       3.90159480       7.50897070
Fe         0.54432640       0.84155170      10.77162400
Fe         7.24544210       3.13463080      10.64549730
Fe         8.81296350       3.08732160       0.70825220
Fe         8.68881890       8.82836670       1.99510220
Fe        10.36512330       7.42538370       4.77315340
Fe         7.51249300       9.51389440       5.16423240
Fe        11.49490850       7.09043690       7.90048610
Fe         6.84509040       8.54594220      10.98712440
Fe        11.31820270       6.32579150      12.38049760
Fe         7.89300060      13.05619100       1.59708620
Fe        10.44125130      14.13126490       4.33279910
Fe         5.33001450      13.81502370       6.14630150
Fe         9.81407900      12.69173750       9.51326180
Fe         7.83612600      14.54564360      11.28795960
Fe        10.14186540      10.65324310      14.06236330
O          1.00081530       3.59949720       3.53698590
O          3.57210180       2.68721480       4.45157600
O          3.20221540       2.33855270       2.13890190
O          3.05997390       5.21945170       4.28234970
O         11.42307990       1.44798550       5.18658560
O          2.81454700       4.70897350       1.58140530
O          2.26597450       3.17729400      13.92398080
O          5.40754160       1.09580540       3.13672680
O          1.39389570       5.85477200       7.07739320
O          3.35581490       2.84203910       7.49166220
O          4.51895160       0.90809500       6.17280120
O          3.48877690       3.38230770      10.80138880
O          0.49811840       0.54561170       9.02586740
O          1.36349770       8.42170990       7.10018640
O          0.87477020       3.48718210       6.22413240
O          3.28179280       0.38806890       8.52673780
O          1.03786250       2.34358620      11.89947590
O          2.33983150       0.16768800      10.98929400
O          4.83138800       0.38545990      11.77741340
O          5.16299390       4.34504380      14.04298980
O         11.82015760       1.11313850      14.62855260
O          1.83502040       5.60157560      12.09752840
O          1.35719700       4.24758870       9.17640130
O          4.76739720       1.89093190      13.98784300
O         11.24699800       8.68303080       3.51119500
O          1.20019320       6.77941870       1.40046230
O          3.76933530       7.01669450       2.21612240
O          3.62914460       8.89488980       4.18212510
O          1.78098940       7.46332300       4.31957230
O          1.55958810      10.91193720       2.84517530
O          1.59332660       9.27567230       0.54425920
O          0.86064860       6.62444290       4.58328060
O          1.93113760      11.31118560       8.18286420
O          3.53750750       7.36087670       6.15020670
O          3.71087540       5.20256860       7.82029290
O          5.61668530       6.88569450       7.58633310
O         10.67327750       6.10697560       9.21252960
O          3.54066790      10.16941000       6.46291030
O          1.06499570       9.85774470       5.16102440
O          3.40313270       7.61227940       8.87591330
O          3.45501370      10.90786200      13.10116670
O         11.78918700       7.75980390      13.47560180
O          2.90344880       8.00284680      11.78686360
O          6.00017210       7.57330840       0.41982910
O         11.15889820       4.73062270      11.44973870
O          2.17999260      12.45935260      10.51987710
O          1.80465210       9.87558000      10.36192500
O          3.63173370       6.51623580      13.85164560
O          0.80016520      15.04842190       4.60747030
O          0.40044030      13.41482800       2.67751200
O          1.29362990      11.99923090       0.57627760
O          5.16192930      14.58288530       2.62256150
O         10.57189760      11.15048760       4.23256060
O          3.11588740       0.10039810       3.79514130
O          1.18767950      16.05064670       1.89728180
O          2.86523540      13.26175000       2.49062390
O          1.60500920      14.41540460       8.02065390
O          4.22379490      12.56506560       7.60860720
O          0.81407890      12.59134110       5.89559290
O          5.36339660      14.83921990       7.75300790
O         11.11858760      11.53970340      10.11683180
O          1.96881350       0.78239720       6.38631350
O         10.98263570      15.81459820       7.13236030
O          4.22590920      10.38284180       8.99892710
O          1.03239090      14.63762460      13.96408180
O          3.17000150      14.01052120      12.35280740
O          3.88377060      14.36297390       9.83715080
O          5.13554110      12.90889030      14.25629350
O          0.82610320      10.43051840      12.85085370
O          2.88199010       0.19572640      13.54720060
O         11.62987530      15.49176870      12.24082480
O          4.79493890      12.21425600      11.19303870
O          7.06823750       4.17246680       3.97568310
O          7.76745350       1.62098930       5.13008440
O          8.97594130       1.85657790       2.58173960
O          9.96864640       3.59474320       4.99564310
O          6.19404410      15.56012480       4.96833100
O          8.88000970       4.59011040       1.80766020
O          7.02965900       3.25362900       0.51263820
O          9.49851510      15.88137100       4.34245130
O          5.61833440       4.14641050       9.34544050
O          6.17061160       2.56829750       7.12840850
O          9.56513530       1.95189150       7.18645590
O         10.34877220       3.41776590       9.20260800
O          5.65725020       0.64796200       9.42576960
O          8.67003030       4.44829540       7.50354190
O          5.36248260       4.70298510       5.93909910
O          7.93640050       2.46511920       9.16917300
O          7.47015060       5.44437800      13.32845370
O          7.65036900       1.76747210      11.74787080
O         10.20666020       1.38865670      11.32059960
O         10.97569350       3.55545300      14.31736500
O          5.40462830      15.54915030      14.18941720
O          8.41328580       4.52992560      10.97035470
O          5.96047510       3.70803320      11.73495110
O          9.29529140       1.62416440      13.88284490
O          5.76788410       8.81221950       2.63975650
O          7.86697460       7.13535110       2.52938310
O          9.94701110       7.19692670       1.38049510
O          8.99791770       8.53854010       5.17836830
O          5.64055600       6.49116590       4.09254450
O          8.24919950      10.14643300       3.35143140
O          7.78340640       9.62096480       0.57226430
O          9.89346250       6.03078910       3.74236010
O          6.99031090       9.04389540       6.78004250
O          8.14882860       6.98394870       8.08597630
O          7.68447580       6.05128210       5.70536120
O         10.31929710       8.86186440       8.60327610
O          4.34855680       5.80633000      11.32650510
O          8.36006560      11.38312940       5.48212840
O          5.91783740      10.21011670       4.77833480
O         10.17578460       6.55019610       6.53790590
O          7.41540070       8.79606460      12.60224060
O          7.28369610       6.82224200      10.98298180
O          9.69383850       8.86524370       9.65473160
O          0.42631880       7.67404260      10.61335120
O          6.05139440       5.38556250       1.67367050
O          7.46403640      10.54099590      10.54893010
O          6.46270070       8.68643960       9.24718150
O          9.56809710       6.55733120      12.40317720
O          6.48411270      12.34639330       2.32064140
O          9.12071230      12.23790970       0.59050590
O         10.32556030       9.64519460       1.27004130
O          3.54577880      14.53640640       6.21284390
O          4.32097810      11.10382790       2.82984210
O          7.51609770      15.71830440       2.63772090
O          7.08304090      14.05037010       0.38181020
O          8.90614090      12.88835580       3.23637220
O          7.41738850       0.14918420       7.31813310
O          6.98117980      13.27442030       6.57157830
O          9.55221440      13.63809470       5.87140730
O         10.44165140      14.39928020       9.32596710
O          5.14439010       9.39798990      11.26840470
O          5.02057860      12.96682170       4.67268310
O          1.94422660      12.49526680       5.44031790
O          8.91870620      12.12612190       8.00732570
O          6.38431790      14.17422930      12.25245620
O          6.96165330      11.59326330      12.88670400
O          8.63170790      12.78402630      11.10424230
O          9.95499790      15.57129820       1.81077630
O          5.56603340       9.91968760      14.25180050
O          8.78114430      15.61701150      12.38122300
O          7.48113530      14.84096830       9.51997170
O          9.44810910      10.62644810      12.38577620
Si        11.47746640       3.08442650       5.24796040
Si         3.83895970       1.44815620       3.38284610
Si        11.10039710       4.68065300       9.79985570
Si         3.28783910       1.25121490       7.15105520
Si         0.84461570       2.51645420      13.55173820
Si         4.48395890       0.43172300      13.36085500
Si         0.45987720      10.10239330       3.69030870
Si         2.73930060       6.32195790       1.17391500
Si         1.35410350      11.33526930       9.69339750
Si         4.00558070       6.81926480       7.62328350
Si         2.08284060      10.65436470      13.91663250
Si         3.22097200       6.49333790      12.29344450
Si         0.71135740       0.21760460       5.59434170
Si         1.51678770      12.36542640       2.13677830
Si        11.56893240      15.28058000       8.61794560
Si         3.47956530      11.14479940       7.73068970
Si         0.09327430      15.88101280       0.75461970
Si         3.52433120      13.22745560      10.96176090
Si         6.47021230       5.31580570       4.92034000
Si         8.97296440       0.24268610       2.87148030
Si         4.80021900       4.32438340      10.76947410
Si         9.11012530       3.07204160       8.23603770
Si         6.20417960       4.62585830       0.23331810
Si         8.97289670       1.08938930      12.37100150
Si         4.88531760       9.79201090       3.59969060
Si         9.14566410       6.09107940       2.31702010
Si         6.83314260       7.89175260       7.89975310
Si         8.70120430       5.95434360       6.96137310
Si         6.91471060       9.02589420      14.13252400
Si         8.17408210       5.82316390      11.92437790
Si         6.05284220      15.72767130       3.33747730
Si         9.02394940      11.44264360       3.97012790
Si         6.53050930      15.67276110       8.53969740
Si         8.45763630      12.65481760       6.57054980
Si         6.14494940      14.13292060      13.86740180
Si         8.15029780      11.37154310      11.79716260
