   789
 Wannier centres, written by Wannier90 on 7Sep2026 at 16:30:09 
X          9.80524585       8.61352350       9.79815678
X          9.39272539       8.83844186       9.56641182
X         10.52877436       9.08530458       8.62478762
X          0.84371757      12.78175923       6.14582813
X          2.01218038      12.18918656       5.45474604
X          1.69949662       7.61717259       4.07188317
X          0.88575689       6.42598454       4.38401754
X          0.64303228      12.72605600       5.65116995
X          1.92035462      12.61178604       5.14173120
X          0.88819454       6.57638435       4.88610447
X         10.11840373       8.87780452       8.37102247
X          3.42591642       2.76891532       4.67495062
X          6.03140108       3.58758706      11.94396500
X         11.58326160      15.27984365      12.13986279
X          5.52009134       1.23281372       2.94964550
X          5.33391773       9.79199769      14.22461904
X         10.96468570       3.83077105      14.25761422
X          1.84408264       7.69972082       4.63906425
X          5.99504854       7.36014784       0.27412439
X          3.37135247      14.58788834       6.09174350
X          8.35153250       7.11277642       8.20253942
X          7.00268922       3.06390843       0.34272753
X          1.79026847      10.82925970       2.73331228
X          1.87264200      11.56112723       8.12225346
X          2.80595472       0.01436181      13.71776058
X          4.81121628      15.66288456       0.19115900
X         10.49188917       3.22622380       9.32918385
X          1.30404252      12.16412379       0.35540622
X          5.78752260       0.66784013       9.66312349
X         11.48329386       1.43448859       4.92603329
X          2.95907055      13.94320965      12.52920493
X          0.39168970       7.67108555      10.42167737
X          8.65222994       4.44119735      10.87748150
X          1.06354384      14.40165373      13.84580050
X          4.94200705      12.90972712      14.04791366
X          9.99845150      15.38213120       2.06462907
X          0.91190614       9.66477094       5.30213441
X          7.51521902      10.58005251      10.29700845
X          4.53364470       6.00643384      11.38145547
X          5.68373488       6.64081765       7.50330077
X          1.74628911       9.07051595       0.59994900
X          8.95531812      15.51626323      12.16948770
X          5.98639223       5.30384048       1.91086898
X          1.10466825       3.87751932       3.54165120
X          7.43759598      15.84186041       2.40562894
X          7.27363764       6.81851326      10.71304242
X          5.93167875      10.18548946       5.04998406
X         11.02408369       4.67419086      11.64474550
X          4.98080821       1.99330603      14.02599211
X          6.21290529      14.12334215      12.06664488
X          7.67386720       2.40559525       9.11790414
X         10.59417161       6.10729692       8.89930308
X          1.25978350       0.13484383       2.02500492
X          3.71767881       9.97546452       6.36262580
X          1.00330638       6.66068727       1.50908426
X         10.20044224       1.33210572      11.07236808
X          5.03162156       0.41071912      11.64085854
X          6.99078713       4.02407188       3.76420790
X          8.06185286      10.22354021       3.20207088
X         10.16365591       6.16481491       3.73235342
X          4.15675057      11.22461492       2.64929317
X          7.56436754       6.30189408       5.77857243
X          4.52824408       0.87966837       5.91682290
X          7.47527807       1.67340719      11.57277556
X          0.86242744      10.55635880      12.62521366
X          6.47263882      15.54344185       4.92683318
X          5.00955075       4.53604260      14.14851552
X          9.56243555      10.40230626      12.32526382
X         10.62864747      11.42085189       4.32387473
X          9.89120391       7.22449657       1.14944621
X          4.92106447      14.58139487       2.53576925
X          9.82283361       3.80958221       5.07019344
X          2.06854386      12.71357926      10.45574939
X          4.44858193      12.72394705       7.30570147
X          7.24884342       9.26977291       6.61252367
X          7.29266743      14.19278924       0.45738043
X          5.86933789       8.87689975       2.39707116
X          0.38837932       0.78622809       9.05487461
X          3.62815683       5.16636187       8.06541136
X          6.83765165      11.82663386      12.99384412
X          3.88460223       6.58252689      13.82132633
X          9.66063431       6.79535038      12.49143257
X          3.64794877       7.24444562       2.17503183
X          3.32731284       2.53862138       1.75291655
X          3.04532307       0.44840843       8.62492519
X          5.16337479       4.85528089       6.00391276
X          2.74261904      -0.00558431       3.78268792
X          3.40055345       3.12170015      10.74996052
X          7.73236146      14.74092799       9.51588249
X         10.94779627      11.64347512      10.33460338
X          6.64402510      12.42515373       2.52460895
X         10.64719577      15.91146556       7.02000858
X          3.02118024       8.12935015      11.96409384
X          8.73854306      12.21478933       8.22356453
X          9.77668006       1.94483354       7.01034719
X          6.34595107       8.98100215       9.27065526
X          3.58910401      10.74264330      12.92013031
X         11.08113760       1.25807950       0.51053898
X          0.90925363      14.85944605       4.73481062
X          3.49326607       8.95565992       3.96823155
X          5.85059230       3.87988760       9.48534000
X          8.43350450       4.54680284       7.64117960
X          8.68890357      12.74525283       3.46860158
X          7.46160305       8.98917519      12.34382640
X          7.94698736       7.24055465       2.75871884
X         10.46429012      14.32731164       9.60434851
X          5.12796961       9.56535395      11.48676966
X          9.55576311       1.68574684      13.97470173
X          8.86012901       4.35756323       1.45801318
X          7.46251065       5.67586200      13.47743343
X          4.12671299      14.22657496       9.89817615
X          4.86642229      12.05779989      11.52988456
X          3.15016692       7.61654409       9.01014197
X          0.25092765      13.52432923       2.49465300
X          1.69818306      14.25916359       7.80910382
X         10.35955691       9.83139213       1.41880327
X          5.69046024       6.58378516       3.70673760
X         10.25438333       6.69720453       6.13350530
X          8.91065372       2.05243048       2.22863332
X          2.91622883       4.40538944       1.28832184
X          3.60935470       7.19613415       5.77745157
X          9.48127914      13.93142110       5.82930545
X          6.10634692       2.45641481       7.29244828
X          0.51945678       7.78929603      13.40335095
X          1.52249915       8.63299333       7.15514089
X          1.76938266       5.48283832      12.28968241
X          2.84940733       5.12356024       4.39262431
X          3.29017579      13.19003243       2.49474010
X          8.63873768      11.32860075       5.49509002
X          0.82944316       3.76302814       6.39768173
X          3.76979209       3.03115266       7.46948788
X          2.33150026       3.30077285      14.19411451
X         11.33136806       8.55645977       3.12515823
X          2.05782646       1.03440314       6.25491425
X          6.79591662      13.59503189       6.49833040
X          8.08445348       9.83560513       0.45489247
X          1.96574130       0.36284035      10.88948818
X          1.29358329       2.29263799      11.99069714
X          1.60901951       5.77847137       6.91993973
X          8.40232696      13.15564759      11.11420697
X          9.24299856      12.19064201       0.80699349
X          2.19794327       9.70757826      10.30543858
X          9.44942775      16.03981904       4.72931712
X          8.15486091      11.00015944       5.45100767
X          4.94159293      14.78791166       7.85469331
X          1.55803500       4.21474590       8.77311577
X          4.62924747      10.45847234       9.16197227
X          8.99453957       8.84086967       5.22652752
X          7.80258894       0.27469873       7.16406848
X          8.68964556      12.97947150       2.88761146
X          2.27608399       0.67127522       6.56138878
X         10.95784277       8.80274084       3.53894852
X          3.46518637       7.12158129       6.44851724
X          4.90997606      12.94268061       5.03009304
X          7.92694348       1.93104319       4.90366290
X          8.85549884       4.16168478       7.71332650
X          9.29454802      15.71637731       4.28826665
X          5.41508277      15.11680719       7.65402025
X         11.09329509      15.85923298       7.50353305
X          0.90658456       2.04198253      11.62172758
X          6.89669071      13.19910054       6.27491856
X          9.17247706       4.82500960       1.82675998
X          3.52756359       0.43835494       8.89880483
X          0.74434423       1.37737117      14.22402005
X         10.50877866       8.51436958       8.56713008
X          2.02251030      12.15553046      10.29968402
X          7.38754073       5.78740077       5.67244174
X          7.73910294       5.30029300      13.38401972
X          7.41074082      16.04690111       7.16633656
X          3.39367173       8.92831393       4.55506166
X          3.77011232      14.34281893       9.42715739
X          2.29297391      16.10011520      11.37465712
X          5.27003234       4.40258100       5.97697690
X          1.69357682       9.75067594      10.75210438
X          4.18665917       5.82338298      11.07545130
X         10.80015292      10.85283770       4.33608910
X          3.03530739       4.73746881       1.68505502
X         10.35326660       7.37543052       1.41791074
X          2.78631106      13.22602434       2.75544187
X          8.86846420       1.45819121       2.63153256
X         10.10895824       6.72653706       6.61645019
X          8.44495032       9.84774582       3.09953393
X          3.84264293      10.99357948      13.28032274
X          3.54105005       6.31062819      14.17851067
X          1.45308805       5.44195415       7.26381205
X          5.18433964       6.47445124       4.11539523
X          4.82757218      11.86422085      10.92388404
X          7.07480626       8.73733327       7.02520416
X          3.08910647       3.11653960       7.33184616
X          8.42093816      12.45110173      11.20034862
X          9.14206157       1.65406668      14.15874931
X          9.05834724       8.31895752       5.35509327
X          3.06976713       8.14170646      11.39718476
X          3.95538914      12.26539600       7.49663086
X         11.80221566      10.44616409      13.46903112
X          7.59799051      15.41830215       2.63931558
X          1.03271165      11.89854698       0.69256113
X          5.21301519       6.95927745       7.55990691
X          8.12489532       6.81050606       2.41131505
X          3.35931890       5.03178791       7.61698192
X          6.17191113      15.99113970       5.17047182
X          2.66948561       3.03337594      14.03135834
X          1.24519108      10.70194449       2.80216862
X          5.53721241      15.16204064      14.12899360
X         10.32929382      15.69338684       1.67738503
X          3.44807664       2.08446992       2.34847133
X          0.33554350       1.20420095       4.97649676
X         10.53149833       3.59999999       8.99056624
X          5.38400945       0.80391338       9.39524307
X          3.70829764       6.93901491       2.66544182
X          1.06294317      15.08372887       4.22740213
X          5.97297924       8.64291254       2.80456015
X         10.52168906       3.38467306      14.38418892
X          7.27934305       7.32079890      11.02206386
X          5.08292591      14.24260594       2.87205878
X          7.08742762       8.73095777      12.30040508
X          5.03625643       4.18279849      13.85013583
X          7.15369233      13.80659746       0.78831515
X          3.27516733       0.17809115      13.42078783
X          7.21819128      11.56732353      12.56610500
X          4.54165095       2.17395666      13.86899924
X          9.89499483       6.35489347      12.57547146
X          4.15434318      10.56050965       9.19577016
X          8.03706990       1.63735423      11.75368515
X          5.30175219       4.21917199       9.62670296
X          7.21336103       3.20291117       0.78743964
X          1.24169771      10.02123599       5.29368672
X          7.78121759       2.76388712       9.50804121
X          4.78276344       0.72908968       6.29407589
X          6.19793416       2.94804854       7.14210756
X          4.63092726      11.36700421       2.74321327
X          6.38431266      14.17150284      12.66874773
X          7.92521329       6.84995986       8.22435948
X          4.89378912      12.95950004       4.21613401
X          9.68482008       3.30858022       4.97225452
X          7.46595872       1.68512465       5.41268204
X          8.32381144       4.80086737      11.28650319
X          3.56115306       7.45083848       8.53669301
X          4.99195408       1.11956810       3.14079582
X          5.77179966       7.55106264       0.77439123
X          0.96412348       4.41770457       9.17081335
X          1.87813816       5.24564032      11.80936381
X          1.61107171       6.72059465       1.35778953
X         10.76451121      14.56170249       9.12904006
X          6.30947270       8.48550096       9.46350153
X          6.85347505      12.67681984       2.09681061
X          1.85022559      11.27782870       8.58962461
X          3.27072352       5.06330166       4.21916341
X          9.38038959       2.21572319       7.43503067
X          9.21649328      12.34679664       8.25622549
X          3.58769503      14.67804939       6.74598395
X          9.64379890      13.63097667       5.41421369
X          8.77061848      16.03134658      12.37604832
X          6.23637710       5.74892140       1.74704583
X         10.61977970       9.30904736       1.24131715
X          5.60429923      10.16874248      14.34528862
X          3.11215428      16.00120604       3.46681694
X          5.45908981      13.17033888      14.14029404
X          7.48839211       4.11024187       3.96349371
X         11.69985913       7.35439257      13.23337241
X          7.30516589      15.13867108       9.30570680
X          4.54756866       0.55201836      11.44571408
X          2.05367454      14.58342836       7.98702249
X          3.48798175      10.37944478       6.81366698
X          0.44559504       0.52251138       9.54915112
X          0.84975628       3.44822582       3.89417198
X         11.52944312      11.56787635      10.13630779
X          7.61956729      10.75927092      10.88333533
X          9.65837395       6.04728357       3.40487543
X          0.58790521      13.06429203       2.61597016
X          7.88544282       9.34259006       0.56087331
X          1.29791628       9.23577386       0.79910608
X          0.86790090      14.93231470      14.21350479
X         11.55925744       4.58158600      11.41782300
X          0.50916359       6.85340035       4.52314078
X          9.66169670      10.84567041      12.55775299
X          5.65516744      10.13300827       4.46624038
X         11.02548537       6.29959472       8.98109622
X          1.27870619      15.71433555       2.23610362
X          0.71269554       3.39298903       5.86322893
X          3.23768805      13.82354381      11.97788997
X          5.61618904       3.84538670      11.52203391
X          9.13740014      11.78058048       0.43460713
X          3.61151176       2.32339983       4.21890167
X         10.53598748       1.53000564      11.36164474
X          0.85321567      15.43119619      12.00096090
X          0.44393861       8.08223588      11.01600583
X         10.58764426      11.12669744       3.91620402
X          1.67217646       8.39221053       6.68985807
X          3.81266884       3.62980997      10.73966812
X          7.20208423      15.76607728       2.89918139
X          9.78080664       9.12902274       9.78046541
X          5.59385437       9.11871105      11.15541016
X          1.48261728      12.09861811       0.91866168
X          2.12227279       7.26542482       4.27726099
X          4.05610974       5.83472747      11.61134994
X          1.84980187      11.07800923       8.05917379
X          7.80809958       6.03221292       5.45689864
X          2.72859519       0.40907379      13.44709151
X          6.85218121       3.64097192       0.48120019
X          1.37908021      12.54277564       5.66870261
X          5.60015106      15.71840974      14.02524403
X          1.11853652      14.89099186      13.51479322
X          6.06591235      12.52584636       2.35141046
X          6.11479817       5.22924651       1.29637497
X          7.33553770      13.18831633       6.69207473
X          5.40047139      14.86208916       2.82070672
X          0.97570096       9.88210092       4.75693486
X          4.05120233       4.93818278       7.72791096
X          7.91343801       7.24767450       7.88677066
X          7.30007625       8.88628785      12.97055606
X          8.60159363       4.34585215       7.24807900
X          3.62801467      14.18875922      10.07158720
X          4.87818133       4.02083297      14.31874086
X         10.82169106       5.73140864       9.33852028
X          3.40230013       0.62965910       8.21370324
X          4.35473404      12.44542491       7.87555215
X          9.26462269       2.08421321      13.97220235
X          9.24028894       6.34741460      12.26226911
X          2.19031179      12.40292731      10.80787996
X          8.19712622       2.67512224       8.93174107
X          3.99990297      14.38748502       6.23057046
X          3.30168332       2.97519210       4.05931246
X         11.26950578      16.00073541       6.89375930
X          5.24242540      12.45664407      13.96401550
X         10.19676842      14.44148635       9.23812725
X          8.50614327      10.46233684       3.43967322
X          6.19826512       3.87012724      11.53698665
X          6.27506026       9.84442077       4.79307053
X          0.13711260       8.99235052       3.24231379
X          6.75618202      14.04306998      12.10746021
X          0.74033335       7.95040917      12.70202067
X          2.68934356       5.06995321       1.46756890
X          8.46765912      15.47174812      12.05337634
X          7.48431050       5.51030900      12.94318152
X          2.76271609      14.35477762      12.26669087
X          5.51888083      10.29614308      13.88278595
X          0.75592168       0.55840465       9.19676103
X          0.77964218      15.42005462       4.81221380
X          9.91972941       6.52115280       3.94303166
X         10.97304208       3.43602719      14.60329014
X          7.02706296      10.67637474      10.52520465
X          6.05289927      15.62939898       4.58179279
X          9.51203476       1.58252668       7.24211872
X          2.18274532       5.83469921      12.11707137
X          7.60116126       1.90810058      11.97486603
X          8.38486712      11.52398076       5.10555188
X          9.86178063       6.86805209       1.61815188
X          3.76071340       7.50400379       6.23791838
X          3.14276254       2.72236122       2.45167464
X          0.43283820      15.93405991      11.42716357
X          3.60458103       7.63412211       9.17026334
X          3.29851921       3.51401503      11.09526468
X         11.04864330       4.76529993      11.05968843
X         10.00689815       8.85196063       9.12700975
X         10.59260268       1.08342824      11.37134965
X          4.34333355      11.42566414       3.06968756
X          5.69871198       4.79890078       5.73348372
X          9.79488568      15.49851210       1.61510174
X          4.62320095       1.52193405      13.88157584
X          3.44412369       6.75769869      13.88505149
X          1.45865167      11.28376026       2.70092344
X          9.09817868      10.81930571      12.25368163
X          8.10356952       4.13618460      11.00080115
X          1.73675736      14.29308335       8.25579715
X          8.06805972       7.52285035       2.33050672
X          5.81207115       6.15118685       4.25642702
X          1.16347232       8.42168616       6.87315158
X          0.70284720      13.67938355       2.76554341
X          6.52829793      11.46578756      12.79400524
X          6.68996237      14.08304491       0.26816495
X          1.53205416       4.39879263       9.46543265
X          5.27733107       0.38359595       9.61004538
X          1.54831376       3.59806534       3.57321514
X          8.63197832       4.80147121       1.83713227
X          5.05640727      12.28500779      11.02688989
X          4.19425537       6.99449352       2.18502250
X          7.11325804       0.39148448       6.98900832
X          1.03496897       5.93651814       7.02323405
X          1.78427238       0.54198210       6.13908392
X          6.16520544       2.30469034       6.78509125
X          9.91061220       9.42379635       1.42972565
X         11.79287994       1.09884784      14.32021752
X          6.61830666       8.50417334       8.92764659
X          8.85020896      12.33364906       7.64888849
X          3.71323202       8.44541255       4.15794330
X          9.04647116      12.55198776       3.17073188
X          1.64004161       9.66625222      10.28598689
X          7.49501954      14.93199268       9.95928318
X          7.06529586       8.96338703       6.32443012
X          3.33055963       2.45153749       7.34411076
X          1.20747864       9.00043315       0.44347132
X          3.27109581      16.12440848       3.94750480
X         11.07129232      15.52891597       7.10240264
X          2.99258738       4.97402696       3.88717307
X          7.91241997       9.47406430       1.00086849
X          2.41784307      16.07398336      10.80199200
X          3.72692903       2.85602880       4.28019205
X          9.29345330      13.34902460       6.00173363
X          5.81501089       7.17738436       7.44859435
X          5.48394037       0.68641849       3.13626074
X          0.72848288      12.29994244       5.96041731
X          1.32693483       7.04924167       4.45813596
X          5.64007398       8.39867465       2.53398170
X          1.52350988      10.94019202       3.17401207
X          1.40024003      15.85387670       1.76492256
X          3.17423477      10.79235914      13.37066633
X         10.29621145       3.71610956       9.42810178
X          5.70602230       4.35887849       9.28099524
X          8.02416933       1.33139369       5.40992931
X          7.17108687       3.92034824       4.22447188
X          2.69726628       4.53227790       1.94972590
X          5.10610485      15.60722049      13.92365667
X          1.76485026       0.85441728       6.59171026
X         11.01726693      11.34130610       9.95957939
X          7.54413152       6.64735347      11.26723341
X          9.69608783       7.53926473       1.57015233
X          2.59150269      13.01309524       2.29708526
X          3.18556873       9.80464516       6.42116177
X         11.63479138       7.30176909      11.51736566
X          8.27809242      11.66148609       5.74700446
X         11.14815530       1.35498955       5.29637029
X          1.15172827      10.44915862      13.11694181
X          0.84283968       2.42803502      12.22657090
X          0.98958100       3.35121070       6.49381614
X          7.55740870       3.32563683       0.45212108
X          9.10769510      12.35388351       0.39540833
X          3.23025349       7.69217944       6.09542850
X         10.51210883       6.60776252       6.83073946
X          2.63075463      15.99080819      13.15785916
X          5.62069029       6.70944893       4.26070443
X          6.72077084       8.66544486       9.60362157
X          6.76006128       9.15662927       6.75068435
X          3.35649872       0.00531190       8.46106256
X          5.11387310      13.39092124       4.97377403
X          8.79770857      12.81335907      11.28866605
X          6.08002137       7.98715013       0.33777826
X          9.78282828      15.52579439       4.32663518
X          6.95138058      11.38345192      13.07757745
X          5.45187940       1.14780635       3.44965312
X         11.66915570      15.73274604      12.42349673
X          1.06047748       3.48175430       3.29959697
X          3.78246324       5.60513287       7.70777842
X          2.36252777       3.36922229      13.72343490
X          9.18389371       1.50313711      13.51332902
X          9.28756326       1.71745556       6.88711568
X          2.93498397       7.58864213      11.82738971
X          9.84383143       3.53848283       4.62515953
X          0.39937075      14.91341384       4.46745781
X          4.47586036       5.42583700      11.30360144
X          9.86172167       5.98830604       4.02494490
X          4.25084028       1.06458528       6.44120208
X          7.63662457       2.18542021      11.44890467
X          4.11359801      10.49519430       8.64786017
X         10.40054296      13.94815233       9.25002406
X          9.96768118       6.51247264      12.17961878
X          8.87555694       4.77694361       7.43187885
X          5.40581617      14.60000518       7.37760330
X          9.50390496      16.11267642       4.00071585
X          5.45508059       4.04635762       8.92109317
X         11.48662448       1.83735401       5.30826554
X          3.19940158       0.47703722       3.64062932
X          8.18240260       4.56140583      10.79063147
X          5.68205274       6.94722583       7.89552569
X          9.23283928       1.86848216       2.69237475
X          5.30963559      14.31403374       2.47227094
X          2.72238503      13.66024059       2.49667886
X          3.45245925      11.17794155      13.01374668
X          3.11900710       3.60944172      10.69340013
X          6.18565992       3.46251692      11.36044609
X         10.61560598       6.29948645       9.35076033
X          4.45042447      12.43616356      11.11782648
X          1.36350424      14.81902217      13.81531947
X         11.19983623       3.25630456      14.11256672
X          2.12450939      12.67271537       5.63472398
X          7.34329525      10.13353156      10.66904788
X          8.70819005      12.32973977       0.83411492
X          1.16124735       2.71925207      11.68482894
X          0.84976780      15.94906941       1.69042831
X          1.08260733       7.19653330       1.45134042
X          4.09119184      10.04381615       9.20455245
X          5.81905309       5.74517391       1.65726450
X         10.00395061       3.33547229       9.00528562
X          4.70243596       0.40289830      12.17124509
X          4.44774427      10.75390761       3.00716139
X          7.40286484       9.58414986       0.47888436
X         10.35294006       3.45739586       5.05906638
X          0.40969443       0.17158122       8.87030519
X          7.83744691      15.93106409       2.78306430
X          9.02080182      11.89306750       8.01029626
X          7.50084563       8.55617543      12.45628333
X         11.24087979       5.17162638      11.58521494
X          8.69207654      15.44778027      12.55289928
X          6.25163641      10.28456405       4.70842144
X          5.80238180       0.41027833       9.11627853
X          4.81356573       9.25774319      10.97000993
X          2.34876497      11.29044274       8.17221719
X          9.85818445       6.30483574       6.62141922
X          1.97234428       2.92002056      13.88219809
X          3.46275509       8.00084680       8.95170949
X          1.36206890       6.10188210       7.32769531
X          8.04477883       2.34987787       9.41343317
X          3.98849637       9.07934831       4.17367617
X          7.22688802      13.74940156       0.33101467
X          7.27931610      14.65274160       9.59220335
X          4.52427137       2.09471051      14.29529308
X          1.46009938       9.53421363       5.21916502
X          9.27115308       8.37084690       4.89922460
X          0.14720132      13.46094890       3.01698359
X          3.21928250       5.62561049       4.19314220
X          5.43522497       4.56639157       6.41411569
X         10.95189729      11.87286677       9.87463106
X          9.16682043      13.12295265       3.38382388
X          4.61939728      12.81792650       0.28426195
X          3.92386771      14.83404012       9.94720642
X          8.84719603      12.74763287      10.73490637
X          1.23255694       8.05189009       7.21406931
X         10.19255706       9.76660068       0.88073222
X          6.65787199      12.18958367       2.08529993
X          3.28013295      14.27377561      12.42758226
X          8.88297934       4.32631419       1.99941370
X          8.26557455       6.72706155       7.78125100
X          1.03499797       6.97204460       1.08123359
X          5.62882362      14.79100428       8.01796268
X          6.18659552       7.50231136       0.80944623
X          5.99711976      15.29445464       5.18059628
X          5.55284399       4.30664612      14.16778692
X          5.49028325       9.01569632       2.86228405
X          9.78748298      15.89209558       2.00730903
X          0.86107328      10.02692573      12.67605506
X          9.94906209       1.34751349      11.64287580
X          9.41857493      10.57934207      12.83644855
X          7.03375920       6.94062841      11.10523127
X          6.64969784      14.46972363      12.10648526
X          3.56747035       6.72476047       2.01386532
X          6.95180182       4.50974534       4.17830556
X          2.44988409       8.16272671      11.76198067
X          1.28792130      14.68536805       8.04120081
X          1.58388987       9.63835927       0.32661392
X          9.85111533      13.62862847       5.85399639
X         11.62720948       7.96810762      13.20879118
X          8.79278118       2.09014728       2.92228836
X          1.48160565       5.80246211      12.01064987
X          1.26955837       3.68438104       6.28393323
X          2.56294615      12.51021287      10.44753846
X          6.63357782      13.19320873       6.65960420
X          3.33918381      10.20662808       6.25540830
X          2.68793634       0.35307771      10.91548123
X          7.28046240       0.15373735       7.67357423
X         10.19113086      11.08224340       4.26911065
X          3.95254605      12.94082343       7.73537911
X          2.96762045       2.30345583       2.12645202
X          8.14438831       9.98577048       3.71633108
X          5.32880978       9.80868790      10.89257970
X          3.48624432       6.36179117      13.51523223
X          3.27140532       2.88681321       7.72842909
X          7.93611427       5.94124841       6.00584005
X          1.71519246      10.25281756      10.24688559
X          1.45008795      11.63556255       0.46215330
X         11.16938290       8.38001358       3.80974434
X          7.48171264       1.40821316       5.05615329
X          5.95740839       9.74745364      14.17930227
X          4.92989706       1.14028884       6.15361030
X          4.63277546       0.12892231      11.52611481
X          5.71507158       2.85697383       7.19086364
X          7.44146839       7.14282987       2.42389152
X          7.19960342       5.19899217      13.46934791
X          0.07498193       0.78950296       0.14847767
X          1.31961738       3.97258201       9.40132062
X          5.26398342      12.99548279       4.68928106
X          8.59122600       8.59804418       5.05385314
X          0.74762143       7.86819689      10.96000154
X          3.52596690      14.31545705       6.65460403
Fe         2.75754980       3.82392190       3.30607950
Fe         6.24993350       1.10443550       5.96410830
Fe         2.08344490       4.27109220       7.31041200
Fe         4.05355160       0.26088860      10.19324070
Fe         1.77520850       3.91979610      11.06567960
Fe         3.40121890       3.28139810       0.42736750
Fe         0.20682110       8.20560060       0.96518360
Fe         3.78339020       6.89450910       4.18452850
Fe         2.43490780       8.90284540       5.79228070
Fe         3.54718050       8.88953230      10.16734920
Fe         1.02363490       8.86582870      11.73832830
Fe         5.87118790       7.07869540       2.12788510
Fe         2.00939760      14.94702680       3.08725340
Fe         4.76938780      12.83219700       2.81260370
Fe         3.42543440      14.37832720       7.93639060
Fe         5.63293970      10.89205410      10.13781420
Fe         1.88792560      15.23448680      12.52452100
Fe         5.19864260      11.35003420      13.24483360
Fe         8.51424950       3.06791500       4.02573390
Fe         9.02438550       0.48870700       6.26768980
Fe         5.11691130       3.90159480       7.50897070
Fe         0.54432640       0.84155170      10.77162400
Fe         7.24544210       3.13463080      10.64549730
Fe         8.81296350       3.08732160       0.70825220
Fe         8.68881890       8.82836670       1.99510220
Fe        10.36512330       7.42538370       4.77315340
Fe         7.51249300       9.51389440       5.16423240
Fe        11.49490850       7.09043690       7.90048610
Fe         6.84509040       8.54594220      10.98712440
Fe        11.31820270       6.32579150      12.38049760
Fe         7.89300060      13.05619100       1.59708620
Fe        10.44125130      14.13126490       4.33279910
Fe         5.33001450      13.81502370       6.14630150
Fe         9.81407900      12.69173750       9.51326180
Fe         7.83612600      14.54564360      11.28795960
Fe        10.14186540      10.65324310      14.06236330
O          1.00081530       3.59949720       3.53698590
O          3.57210180       2.68721480       4.45157600
O          3.20221540       2.33855270       2.13890190
O          3.05997390       5.21945170       4.28234970
O         11.42307990       1.44798550       5.18658560
O          2.81454700       4.70897350       1.58140530
O          2.26597450       3.17729400      13.92398080
O          5.40754160       1.09580540       3.13672680
O          1.39389570       5.85477200       7.07739320
O          3.35581490       2.84203910       7.49166220
O          4.51895160       0.90809500       6.17280120
O          3.48877690       3.38230770      10.80138880
O          0.49811840       0.54561170       9.02586740
O          1.36349770       8.42170990       7.10018640
O          0.87477020       3.48718210       6.22413240
O          3.28179280       0.38806890       8.52673780
O          1.03786250       2.34358620      11.89947590
O          2.33983150       0.16768800      10.98929400
O          4.83138800       0.38545990      11.77741340
O          5.16299390       4.34504380      14.04298980
O         11.82015760       1.11313850      14.62855260
O          1.83502040       5.60157560      12.09752840
O          1.35719700       4.24758870       9.17640130
O          4.76739720       1.89093190      13.98784300
O         11.24699800       8.68303080       3.51119500
O          1.20019320       6.77941870       1.40046230
O          3.76933530       7.01669450       2.21612240
O          3.62914460       8.89488980       4.18212510
O          1.78098940       7.46332300       4.31957230
O          1.55958810      10.91193720       2.84517530
O          1.59332660       9.27567230       0.54425920
O          0.86064860       6.62444290       4.58328060
O          1.93113760      11.31118560       8.18286420
O          3.53750750       7.36087670       6.15020670
O          3.71087540       5.20256860       7.82029290
O          5.61668530       6.88569450       7.58633310
O         10.67327750       6.10697560       9.21252960
O          3.54066790      10.16941000       6.46291030
O          1.06499570       9.85774470       5.16102440
O          3.40313270       7.61227940       8.87591330
O          3.45501370      10.90786200      13.10116670
O         11.78918700       7.75980390      13.47560180
O          2.90344880       8.00284680      11.78686360
O          6.00017210       7.57330840       0.41982910
O         11.15889820       4.73062270      11.44973870
O          2.17999260      12.45935260      10.51987710
O          1.80465210       9.87558000      10.36192500
O          3.63173370       6.51623580      13.85164560
O          0.80016520      15.04842190       4.60747030
O          0.40044030      13.41482800       2.67751200
O          1.29362990      11.99923090       0.57627760
O          5.16192930      14.58288530       2.62256150
O         10.57189760      11.15048760       4.23256060
O          3.11588740       0.10039810       3.79514130
O          1.18767950      16.05064670       1.89728180
O          2.86523540      13.26175000       2.49062390
O          1.60500920      14.41540460       8.02065390
O          4.22379490      12.56506560       7.60860720
O          0.81407890      12.59134110       5.89559290
O          5.36339660      14.83921990       7.75300790
O         11.11858760      11.53970340      10.11683180
O          1.96881350       0.78239720       6.38631350
O         10.98263570      15.81459820       7.13236030
O          4.22590920      10.38284180       8.99892710
O          1.03239090      14.63762460      13.96408180
O          3.17000150      14.01052120      12.35280740
O          3.88377060      14.36297390       9.83715080
O          5.13554110      12.90889030      14.25629350
O          0.82610320      10.43051840      12.85085370
O          2.88199010       0.19572640      13.54720060
O         11.62987530      15.49176870      12.24082480
O          4.79493890      12.21425600      11.19303870
O          7.06823750       4.17246680       3.97568310
O          7.76745350       1.62098930       5.13008440
O          8.97594130       1.85657790       2.58173960
O          9.96864640       3.59474320       4.99564310
O          6.19404410      15.56012480       4.96833100
O          8.88000970       4.59011040       1.80766020
O          7.02965900       3.25362900       0.51263820
O          9.49851510      15.88137100       4.34245130
O          5.61833440       4.14641050       9.34544050
O          6.17061160       2.56829750       7.12840850
O          9.56513530       1.95189150       7.18645590
O         10.34877220       3.41776590       9.20260800
O          5.65725020       0.64796200       9.42576960
O          8.67003030       4.44829540       7.50354190
O          5.36248260       4.70298510       5.93909910
O          7.93640050       2.46511920       9.16917300
O          7.47015060       5.44437800      13.32845370
O          7.65036900       1.76747210      11.74787080
O         10.20666020       1.38865670      11.32059960
O         10.97569350       3.55545300      14.31736500
O          5.40462830      15.54915030      14.18941720
O          8.41328580       4.52992560      10.97035470
O          5.96047510       3.70803320      11.73495110
O          9.29529140       1.62416440      13.88284490
O          5.76788410       8.81221950       2.63975650
O          7.86697460       7.13535110       2.52938310
O          9.94701110       7.19692670       1.38049510
O          8.99791770       8.53854010       5.17836830
O          5.64055600       6.49116590       4.09254450
O          8.24919950      10.14643300       3.35143140
O          7.78340640       9.62096480       0.57226430
O          9.89346250       6.03078910       3.74236010
O          6.99031090       9.04389540       6.78004250
O          8.14882860       6.98394870       8.08597630
O          7.68447580       6.05128210       5.70536120
O         10.31929710       8.86186440       8.60327610
O          4.34855680       5.80633000      11.32650510
O          8.36006560      11.38312940       5.48212840
O          5.91783740      10.21011670       4.77833480
O         10.17578460       6.55019610       6.53790590
O          7.41540070       8.79606460      12.60224060
O          7.28369610       6.82224200      10.98298180
O          9.69383850       8.86524370       9.65473160
O          0.42631880       7.67404260      10.61335120
O          6.05139440       5.38556250       1.67367050
O          7.46403640      10.54099590      10.54893010
O          6.46270070       8.68643960       9.24718150
O          9.56809710       6.55733120      12.40317720
O          6.48411270      12.34639330       2.32064140
O          9.12071230      12.23790970       0.59050590
O         10.32556030       9.64519460       1.27004130
O          3.54577880      14.53640640       6.21284390
O          4.32097810      11.10382790       2.82984210
O          7.51609770      15.71830440       2.63772090
O          7.08304090      14.05037010       0.38181020
O          8.90614090      12.88835580       3.23637220
O          7.41738850       0.14918420       7.31813310
O          6.98117980      13.27442030       6.57157830
O          9.55221440      13.63809470       5.87140730
O         10.44165140      14.39928020       9.32596710
O          5.14439010       9.39798990      11.26840470
O          5.02057860      12.96682170       4.67268310
O          1.94422660      12.49526680       5.44031790
O          8.91870620      12.12612190       8.00732570
O          6.38431790      14.17422930      12.25245620
O          6.96165330      11.59326330      12.88670400
O          8.63170790      12.78402630      11.10424230
O          9.95499790      15.57129820       1.81077630
O          5.56603340       9.91968760      14.25180050
O          8.78114430      15.61701150      12.38122300
O          7.48113530      14.84096830       9.51997170
O          9.44810910      10.62644810      12.38577620
Si        11.47746640       3.08442650       5.24796040
Si         3.83895970       1.44815620       3.38284610
Si        11.10039710       4.68065300       9.79985570
Si         3.28783910       1.25121490       7.15105520
Si         0.84461570       2.51645420      13.55173820
Si         4.48395890       0.43172300      13.36085500
Si         0.45987720      10.10239330       3.69030870
Si         2.73930060       6.32195790       1.17391500
Si         1.35410350      11.33526930       9.69339750
Si         4.00558070       6.81926480       7.62328350
Si         2.08284060      10.65436470      13.91663250
Si         3.22097200       6.49333790      12.29344450
Si         0.71135740       0.21760460       5.59434170
Si         1.51678770      12.36542640       2.13677830
Si        11.56893240      15.28058000       8.61794560
Si         3.47956530      11.14479940       7.73068970
Si         0.09327430      15.88101280       0.75461970
Si         3.52433120      13.22745560      10.96176090
Si         6.47021230       5.31580570       4.92034000
Si         8.97296440       0.24268610       2.87148030
Si         4.80021900       4.32438340      10.76947410
Si         9.11012530       3.07204160       8.23603770
Si         6.20417960       4.62585830       0.23331810
Si         8.97289670       1.08938930      12.37100150
Si         4.88531760       9.79201090       3.59969060
Si         9.14566410       6.09107940       2.31702010
Si         6.83314260       7.89175260       7.89975310
Si         8.70120430       5.95434360       6.96137310
Si         6.91471060       9.02589420      14.13252400
Si         8.17408210       5.82316390      11.92437790
Si         6.05284220      15.72767130       3.33747730
Si         9.02394940      11.44264360       3.97012790
Si         6.53050930      15.67276110       8.53969740
Si         8.45763630      12.65481760       6.57054980
Si         6.14494940      14.13292060      13.86740180
Si         8.15029780      11.37154310      11.79716260
