Fe  O Si                                
   1.0000000000000000     
    11.6419589734613815    0.2274936370119562    0.3900937058734186
     0.3213577659956678   15.9015473562449117   -0.0548462920506552
     0.4799771230309946   -0.0416102714556822   14.2850101170779080
   Fe   O    Si
    36   144    36
Direct
  0.2516497999409626  0.2411363722314109  0.2181713592465266
  0.5533522388386450  0.0876095951112076  0.4186466438173053
  0.1427718417797444  0.2728668519163301  0.5264803041536640
  0.3390336588338450  0.0605250767476734  0.7138799311087248
  0.1794965967208664  0.2117665827041343  0.7723733356539927
  0.2636725992799214  0.2094485841470797  0.0087238038733835
  0.9744034395754695  0.4881782108027521  0.0679417850169807
  0.2260933616244329  0.4868656296899320  0.2679044394874843
  0.1318336542537979  0.5827372682949111  0.4501991912392088
  0.2640501518125338  0.5241234986071733  0.6926746807722624
  0.0757127053487258  0.5387332568337183  0.8383142204967962
  0.4872522150465368  0.4427362698665587  0.1330428711323738
  0.1685581257115201  0.9402394003154350  0.1927533871825114
  0.4102540243624038  0.8053591436580013  0.1320075526210576
  0.3151015305251856  0.8848210926917500  0.5730662656768847
  0.4603345940185473  0.6374423838266748  0.6943624675309022
  0.1477278930725195  0.9063981358401565  0.9131972757822542
  0.4264609849575524  0.7382162268922368  0.9022313757946804
  0.7229474746991708  0.2263696377686543  0.2510083353944132
  0.8328816699508322  0.0926399213049520  0.3624149831802296
  0.4263209835080242  0.2475993669050947  0.4993289789241832
  0.0422722729646926  0.0560086933009614  0.7692711455272715
  0.7864021221983419  0.1656639885443767  0.7483596648876814
  0.7574570712252657  0.1821260011574521  0.0390270298551202
  0.6826929520615589  0.5566130001065466  0.1193614800349160
  0.8501985896851095  0.4309250410760779  0.3142744459171370
  0.6415467487355816  0.6000562574937517  0.3497298234928666
  0.9493568895017768  0.4394847541228531  0.5512305087839474
  0.5247646635644528  0.4748492428440751  0.7523517623458558
  0.9040003205763218  0.4221264566702153  0.8780446413961503
  0.6957252703649407  0.8094254951952076  0.0844681918263928
  0.9427846426942269  0.8944693676013807  0.2808937869696544
  0.5188106449868086  0.9041407838877071  0.4484554060604704
  0.8551248728736381  0.7804209280905929  0.6407864143936683
  0.6826370289364436  0.8960918002230203  0.7834454497528628
  0.7991470328483968  0.6348898249738082  0.9577491016552395
  0.0997887028057228  0.2159146950862284  0.2457605509765972
  0.3091124588259819  0.1622547003824960  0.2926057901842581
  0.3068960528703347  0.1510707432040387  0.1244791673768410
  0.3398630350529837  0.3167158573237747  0.2675245899703786
  0.0063658851601940  0.0895477664043575  0.3598681145265804
  0.2433712008801543  0.2995618322824528  0.0994893589650670
  0.1096161252286496  0.2027109951713815  0.0208229280618330
  0.4803620761666424  0.0650424329395487  0.2027970633255217
  0.0702706105747442  0.3712150767390665  0.5208185352011470
  0.2279036909306347  0.1776042806810758  0.5527976890511346
  0.3979423135881143  0.1257755099059201  0.4504778977633060
  0.3398943828927178  0.1926223778726756  0.7376492337541919
  0.0228301062676830  0.0228412009145146  0.6534838695948406
  0.0113747956773380  0.5352168566070296  0.5030635864966077
  0.0593266386977589  0.2308922067869620  0.4326898327708852
  0.3103412868241838  0.0269303649549304  0.5912060559194726
  0.0583448421479694  0.1604609400190519  0.8475847467990338
  0.1851734096252575  0.0970783777456358  0.7313243983060461
  0.3346593309418736  0.0024826820773735  0.8218397813815648
  0.4003518696838789  0.2476855858283016  0.9661195451397550
  0.9959764028673225  0.0632733114791864  0.9811722461315729
  0.1995229776141374  0.2908072250387352  0.8632868895059671
  0.1035176098637693  0.2786396721065240  0.6766556228929702
  0.2867298670191033  0.1199640514592942  0.9364031037665300
  0.0821678013462472  0.5432613141351000  0.2693066331697233
  0.0897864583909118  0.4180962268243996  0.0942953179032242
  0.2956615348592689  0.4523134897277529  0.1458132338005887
  0.3248966232848030  0.5682086543841186  0.2708766993411207
  0.0306831348496925  0.3861880370057098  0.3270623019384102
  0.1389169683774919  0.6982929518483432  0.2168403549217484
  0.0518865349008538  0.5822094915004792  0.0801912440588933
  0.1186333753862416  0.3835203223732508  0.2721887541700682
  0.1393723829097352  0.6745424840252390  0.5693827345908123
  0.2142485868398706  0.4750165449332918  0.4083259338774149
  0.2828851525509256  0.3267122790645003  0.4858675427442108
  0.4214981147425302  0.4584749675292075  0.4785093784824802
  0.9054026922120011  0.3762747842111193  0.6524700522412785
  0.2734084710271908  0.6298164576698261  0.4397913690628861
  0.0537155434713446  0.6641301048610823  0.3899614542938111
  0.2345723655056735  0.4655845440223728  0.5896889608222712
  0.1553836730596254  0.6120466303510465  0.9086061791026708
  0.0284564494008274  0.4775878196986172  0.9363246860973262
  0.1982937150070571  0.4534346604176917  0.7961876210103572
  0.4818057791873975  0.4823143489462762  0.0162822494845514
  0.9669333237486261  0.3319741637932342  0.8218022896376249
  0.1543905850969552  0.7533069033778304  0.7266155887655688
  0.1226452023014216  0.5913508099383125  0.7247850389122295
  0.2725908871993871  0.4115297930920877  0.9622227298273178
  0.0873811578122600  0.9385745541227302  0.3212091072407647
  0.0230920474696874  0.8393954461441692  0.1811226894720807
  0.1079086318900811  0.7346498334845010  0.0394126785213002
  0.4641687759390727  0.8938032801347446  0.1969942335879088
  0.9215390053300122  0.6674339444104470  0.2448701070632170
  0.2775961793698875  0.0077646899261541  0.2293934134042328
  0.0620588353705505  0.0081386880765842  0.1399584921163151
  0.2375357212086490  0.8336490051594565  0.1409578208143753
  0.1614890038426380  0.8977448491228569  0.5634168070801827
  0.3336219682185968  0.7692212566756805  0.5428781847272093
  0.2168858867724278  0.8003434625109613  0.3790222575390343
  0.4891076618349263  0.8867177546051394  0.5822815712722154
  0.9483359343812695  0.6935719336165173  0.6824602116805335
  0.1982375548970970  0.0462821095327885  0.4352298144633044
  0.9957819556537125  0.9746870227794799  0.4868031094391271
  0.3401795064787804  0.6196344530658970  0.6148130884255819
  0.0254942271310123  0.9012094801388617  0.9933641221975572
  0.2509982530369194  0.8230349634655710  0.8693125905368579
  0.3044890896777740  0.8743015873799391  0.6975181414574714
  0.4292897916298822  0.8292431770767050  0.9964101787609397
  0.9490994608449440  0.6550455156137247  0.9354694644905026
  0.2355516625959687  0.9662210604574084  0.9884427893150061
  0.0823025075446650  0.9540490951719810  0.8167554856770349
  0.3786951835282171  0.7259481121780780  0.7693360292267269
  0.5678793578156406  0.2456980489408422  0.2418605608088612
  0.6897834608343518  0.1201108115014577  0.3366678875770808
  0.7677414114501683  0.1221467098563694  0.1617546928722702
  0.8820483332614801  0.2026622682915723  0.3136340345300655
  0.5301739648734269  0.9803099139755481  0.3464922273754069
  0.7694410971532615  0.2806076796125954  0.1270896692509998
  0.6061391700712122  0.2025971374372726  0.0301221531890152
  0.8480406990917012  0.0006459160016827  0.2738561241493032
  0.4453282657460209  0.2931351248840436  0.6168978249759580
  0.5875225791683680  0.1766153980993218  0.5005799475120971
  0.8032148895745236  0.1051481437577479  0.4840202396190906
  0.9120704415431256  0.2106312485043474  0.6936643360574100
  0.4887019631894043  0.0391159278335885  0.6870811482444706
  0.7666887077568934  0.2683821038456267  0.5107957068174069
  0.4902429738487351  0.3043777318240556  0.3996072311666291
  0.7107117629177918  0.1522774618102169  0.6444200261100009
  0.5813489306917237  0.3354198105866099  0.9225561873130151
  0.6826031382560535  0.1029473972616939  0.8146114835121718
  0.8861570590253665  0.0800960330604010  0.8099109443490400
  0.8915385473947035  0.2117488348783191  0.9820810531371400
  0.4530863860340465  0.9966940394640524  0.9798908347027039
  0.7548201502604498  0.2625276728624085  0.8172281908039722
  0.5432471228810167  0.2421597832806397  0.7750989051509192
  0.7585391519780589  0.0822138709210588  0.9822969426797229
  0.5210216573614755  0.5556244336796439  0.1678470699952791
  0.6776889960311535  0.4383624979869880  0.1111240340391612
  0.8801970937524700  0.3966227008791174  0.0138893341211599
  0.7570715243161720  0.5224771653901336  0.3387566826549404
  0.5044828513603469  0.4139254787675620  0.2545250592038250
  0.7067649665548529  0.6310391963976180  0.2194809902281979
  0.6442658224873777  0.5983396128889000  0.9985413574262838
  0.8745042779522916  0.4219459230984153  0.1848717236813816
  0.5888338288527937  0.5671930716599333  0.4627784989760467
  0.6340611763055191  0.4048712359881784  0.5004953993822149
  0.7386171453593627  0.3380621452624540  0.3369837652364415
  0.8110437293117736  0.5228601649824525  0.6141532076720798
  0.3808910306869638  0.3588862938295094  0.7855886064810244
  0.7370522875889617  0.7139147439914668  0.3591064291375211
  0.5074112162404922  0.6476344819927324  0.3203635811147558
  0.8559097789900140  0.4087390207157373  0.4499054203201140
  0.5731844920886543  0.5240262555301568  0.8529065490877755
  0.6208854903867868  0.3871419901911045  0.7432901104861449
  0.7863829871826792  0.5884587401189642  0.5741229632287517
  0.9491269238540037  0.4979641629629445  0.7906830847493069
  0.4837760212924850  0.3362514087131131  0.0978112343386817
  0.6119184126308763  0.6568177137055637  0.7057609385755472
  0.5318430014321791  0.5079597646961956  0.6280602639485261
  0.7680480617616894  0.4303554707158426  0.8640452835315111
  0.5799103010774125  0.7574203287586458  0.1155099369285749
  0.7749863248493748  0.7450626604801694  0.0072653038215491
  0.8361778272549801  0.5613285853161712  0.0580603609733062
  0.3667736736530179  0.9236678923385395  0.4553846148441084
  0.3889374724055770  0.6987094413181173  0.1729797810224027
  0.6629923194531283  0.9689750508204622  0.1890833464259740
  0.6324487258196726  0.8909642230803918  0.0185797163265459
  0.7776365852069083  0.7907239442274643  0.1892829574485407
  0.5778935122734096  0.0055028325487159  0.5105327650627536
  0.6664892255817066  0.8658887763698518  0.4350445723533031
  0.8794367232021545  0.8312833144559387  0.3729388407677333
  0.9438636812643879  0.8713978934331009  0.6302564479149302
  0.3936457086925752  0.5424439720588179  0.7660492274060464
  0.4914668869176608  0.8108800024899844  0.3955948532096539
  0.3087527645702031  0.7922544467404987  0.3336973098704571
  0.7897966709467905  0.7566913961768053  0.5309879906859526
  0.5408755713007497  0.8950088949951381  0.8477971049551098
  0.5816350161506932  0.7312875874988550  0.8724372631894577
  0.7407498678325027  0.7837680606841994  0.7482250336262214
  0.8563141090046862  0.9709277737897600  0.0952387743519107
  0.4214623905003897  0.6332776394627533  0.9550276993440818
  0.7704837946212212  0.9482189031815551  0.8672290318469718
  0.6746551563075337  0.9398486054960847  0.6642499851341312
  0.7686691839366701  0.6380257555137878  0.8377843424706641
  0.0192047129594519  0.1935265335791994  0.3366818515633199
  0.3447782102018884  0.0911110617769771  0.2095535333506715
  0.9659494187553452  0.3024958256260298  0.7102277414252293
  0.2807989927626411  0.0910734439924581  0.5057885489020516
  0.0144199529132254  0.1615851916231252  0.9600671147650106
  0.3321028542795101  0.0225859954803716  0.9336311199432820
  0.0487154869769284  0.6430697127358503  0.2786764069366657
  0.2271594108992163  0.3995492805489289  0.0712916150585479
  0.0833986839262694  0.6813462969931501  0.6780411675088382
  0.2892964628841851  0.4301553738105062  0.4897877853259143
  0.0673170967329187  0.6484794818211564  0.9933751202872227
  0.2621586072922410  0.3797023231586779  0.8545434927584454
  0.0804641257374594  0.0097695315115468  0.4039550999744214
  0.1262515052474519  0.7733355270505566  0.1427744909621496
  0.0321148632333828  0.9374724413688511  0.5883856130307267
  0.2793764346278669  0.6800655942158466  0.5378327967326415
  0.9871096881125404  0.9860094418099515  0.0534984338953621
  0.2694679912878489  0.7937786703713419  0.7602446706025747
  0.4779669143736354  0.3175552130653444  0.2890138341351264
  0.7785405108617958  0.0207533063649441  0.1770515038879550
  0.4286331951319030  0.2705348368356272  0.7256992998940688
  0.7166902529350445  0.1778084592100471  0.5373795742875743
  0.5189425121595939  0.2795725656866270  0.0044801827683589
  0.7731202036344942  0.0477826730780658  0.8743886442038284
  0.4328230886759704  0.6209542899701183  0.2331690350170687
  0.7951979107791449  0.3789667241738875  0.1069227091849549
  0.5431275224089437  0.4831030062931650  0.5165233333590519
  0.7410653788373954  0.3514075690150876  0.4518273820344639
  0.5241663712513324  0.5622257106537158  0.9552792098977458
  0.6302263366151316  0.3086407101202723  0.8172351782643092
  0.5308653478820946  0.9722137243061731  0.2312967898486590
  0.7918269584174377  0.7052220690985289  0.2482548077496069
  0.5596931504095861  0.9709522216270718  0.6185744719509843
  0.7687599127319428  0.7931274686049511  0.4304298244737425
  0.5173350348018443  0.9037671103022361  0.9597897729577738
  0.6744837104389128  0.7010496972118947  0.7900819679465777

  0.00000000E+00  0.00000000E+00  0.00000000E+00
  0.00000000E+00  0.00000000E+00  0.00000000E+00
  0.00000000E+00  0.00000000E+00  0.00000000E+00
  0.00000000E+00  0.00000000E+00  0.00000000E+00
  0.00000000E+00  0.00000000E+00  0.00000000E+00
  0.00000000E+00  0.00000000E+00  0.00000000E+00
  0.00000000E+00  0.00000000E+00  0.00000000E+00
  0.00000000E+00  0.00000000E+00  0.00000000E+00
  0.00000000E+00  0.00000000E+00  0.00000000E+00
  0.00000000E+00  0.00000000E+00  0.00000000E+00
  0.00000000E+00  0.00000000E+00  0.00000000E+00
  0.00000000E+00  0.00000000E+00  0.00000000E+00
  0.00000000E+00  0.00000000E+00  0.00000000E+00
  0.00000000E+00  0.00000000E+00  0.00000000E+00
  0.00000000E+00  0.00000000E+00  0.00000000E+00
  0.00000000E+00  0.00000000E+00  0.00000000E+00
  0.00000000E+00  0.00000000E+00  0.00000000E+00
  0.00000000E+00  0.00000000E+00  0.00000000E+00
  0.00000000E+00  0.00000000E+00  0.00000000E+00
  0.00000000E+00  0.00000000E+00  0.00000000E+00
  0.00000000E+00  0.00000000E+00  0.00000000E+00
  0.00000000E+00  0.00000000E+00  0.00000000E+00
  0.00000000E+00  0.00000000E+00  0.00000000E+00
  0.00000000E+00  0.00000000E+00  0.00000000E+00
  0.00000000E+00  0.00000000E+00  0.00000000E+00
  0.00000000E+00  0.00000000E+00  0.00000000E+00
  0.00000000E+00  0.00000000E+00  0.00000000E+00
  0.00000000E+00  0.00000000E+00  0.00000000E+00
  0.00000000E+00  0.00000000E+00  0.00000000E+00
  0.00000000E+00  0.00000000E+00  0.00000000E+00
  0.00000000E+00  0.00000000E+00  0.00000000E+00
  0.00000000E+00  0.00000000E+00  0.00000000E+00
  0.00000000E+00  0.00000000E+00  0.00000000E+00
  0.00000000E+00  0.00000000E+00  0.00000000E+00
  0.00000000E+00  0.00000000E+00  0.00000000E+00
  0.00000000E+00  0.00000000E+00  0.00000000E+00
  0.00000000E+00  0.00000000E+00  0.00000000E+00
  0.00000000E+00  0.00000000E+00  0.00000000E+00
  0.00000000E+00  0.00000000E+00  0.00000000E+00
  0.00000000E+00  0.00000000E+00  0.00000000E+00
  0.00000000E+00  0.00000000E+00  0.00000000E+00
  0.00000000E+00  0.00000000E+00  0.00000000E+00
  0.00000000E+00  0.00000000E+00  0.00000000E+00
  0.00000000E+00  0.00000000E+00  0.00000000E+00
  0.00000000E+00  0.00000000E+00  0.00000000E+00
  0.00000000E+00  0.00000000E+00  0.00000000E+00
  0.00000000E+00  0.00000000E+00  0.00000000E+00
  0.00000000E+00  0.00000000E+00  0.00000000E+00
  0.00000000E+00  0.00000000E+00  0.00000000E+00
  0.00000000E+00  0.00000000E+00  0.00000000E+00
  0.00000000E+00  0.00000000E+00  0.00000000E+00
  0.00000000E+00  0.00000000E+00  0.00000000E+00
  0.00000000E+00  0.00000000E+00  0.00000000E+00
  0.00000000E+00  0.00000000E+00  0.00000000E+00
  0.00000000E+00  0.00000000E+00  0.00000000E+00
  0.00000000E+00  0.00000000E+00  0.00000000E+00
  0.00000000E+00  0.00000000E+00  0.00000000E+00
  0.00000000E+00  0.00000000E+00  0.00000000E+00
  0.00000000E+00  0.00000000E+00  0.00000000E+00
  0.00000000E+00  0.00000000E+00  0.00000000E+00
  0.00000000E+00  0.00000000E+00  0.00000000E+00
  0.00000000E+00  0.00000000E+00  0.00000000E+00
  0.00000000E+00  0.00000000E+00  0.00000000E+00
  0.00000000E+00  0.00000000E+00  0.00000000E+00
  0.00000000E+00  0.00000000E+00  0.00000000E+00
  0.00000000E+00  0.00000000E+00  0.00000000E+00
  0.00000000E+00  0.00000000E+00  0.00000000E+00
  0.00000000E+00  0.00000000E+00  0.00000000E+00
  0.00000000E+00  0.00000000E+00  0.00000000E+00
  0.00000000E+00  0.00000000E+00  0.00000000E+00
  0.00000000E+00  0.00000000E+00  0.00000000E+00
  0.00000000E+00  0.00000000E+00  0.00000000E+00
  0.00000000E+00  0.00000000E+00  0.00000000E+00
  0.00000000E+00  0.00000000E+00  0.00000000E+00
  0.00000000E+00  0.00000000E+00  0.00000000E+00
  0.00000000E+00  0.00000000E+00  0.00000000E+00
  0.00000000E+00  0.00000000E+00  0.00000000E+00
  0.00000000E+00  0.00000000E+00  0.00000000E+00
  0.00000000E+00  0.00000000E+00  0.00000000E+00
  0.00000000E+00  0.00000000E+00  0.00000000E+00
  0.00000000E+00  0.00000000E+00  0.00000000E+00
  0.00000000E+00  0.00000000E+00  0.00000000E+00
  0.00000000E+00  0.00000000E+00  0.00000000E+00
  0.00000000E+00  0.00000000E+00  0.00000000E+00
  0.00000000E+00  0.00000000E+00  0.00000000E+00
  0.00000000E+00  0.00000000E+00  0.00000000E+00
  0.00000000E+00  0.00000000E+00  0.00000000E+00
  0.00000000E+00  0.00000000E+00  0.00000000E+00
  0.00000000E+00  0.00000000E+00  0.00000000E+00
  0.00000000E+00  0.00000000E+00  0.00000000E+00
  0.00000000E+00  0.00000000E+00  0.00000000E+00
  0.00000000E+00  0.00000000E+00  0.00000000E+00
  0.00000000E+00  0.00000000E+00  0.00000000E+00
  0.00000000E+00  0.00000000E+00  0.00000000E+00
  0.00000000E+00  0.00000000E+00  0.00000000E+00
  0.00000000E+00  0.00000000E+00  0.00000000E+00
  0.00000000E+00  0.00000000E+00  0.00000000E+00
  0.00000000E+00  0.00000000E+00  0.00000000E+00
  0.00000000E+00  0.00000000E+00  0.00000000E+00
  0.00000000E+00  0.00000000E+00  0.00000000E+00
  0.00000000E+00  0.00000000E+00  0.00000000E+00
  0.00000000E+00  0.00000000E+00  0.00000000E+00
  0.00000000E+00  0.00000000E+00  0.00000000E+00
  0.00000000E+00  0.00000000E+00  0.00000000E+00
  0.00000000E+00  0.00000000E+00  0.00000000E+00
  0.00000000E+00  0.00000000E+00  0.00000000E+00
  0.00000000E+00  0.00000000E+00  0.00000000E+00
  0.00000000E+00  0.00000000E+00  0.00000000E+00
  0.00000000E+00  0.00000000E+00  0.00000000E+00
  0.00000000E+00  0.00000000E+00  0.00000000E+00
  0.00000000E+00  0.00000000E+00  0.00000000E+00
  0.00000000E+00  0.00000000E+00  0.00000000E+00
  0.00000000E+00  0.00000000E+00  0.00000000E+00
  0.00000000E+00  0.00000000E+00  0.00000000E+00
  0.00000000E+00  0.00000000E+00  0.00000000E+00
  0.00000000E+00  0.00000000E+00  0.00000000E+00
  0.00000000E+00  0.00000000E+00  0.00000000E+00
  0.00000000E+00  0.00000000E+00  0.00000000E+00
  0.00000000E+00  0.00000000E+00  0.00000000E+00
  0.00000000E+00  0.00000000E+00  0.00000000E+00
  0.00000000E+00  0.00000000E+00  0.00000000E+00
  0.00000000E+00  0.00000000E+00  0.00000000E+00
  0.00000000E+00  0.00000000E+00  0.00000000E+00
  0.00000000E+00  0.00000000E+00  0.00000000E+00
  0.00000000E+00  0.00000000E+00  0.00000000E+00
  0.00000000E+00  0.00000000E+00  0.00000000E+00
  0.00000000E+00  0.00000000E+00  0.00000000E+00
  0.00000000E+00  0.00000000E+00  0.00000000E+00
  0.00000000E+00  0.00000000E+00  0.00000000E+00
  0.00000000E+00  0.00000000E+00  0.00000000E+00
  0.00000000E+00  0.00000000E+00  0.00000000E+00
  0.00000000E+00  0.00000000E+00  0.00000000E+00
  0.00000000E+00  0.00000000E+00  0.00000000E+00
  0.00000000E+00  0.00000000E+00  0.00000000E+00
  0.00000000E+00  0.00000000E+00  0.00000000E+00
  0.00000000E+00  0.00000000E+00  0.00000000E+00
  0.00000000E+00  0.00000000E+00  0.00000000E+00
  0.00000000E+00  0.00000000E+00  0.00000000E+00
  0.00000000E+00  0.00000000E+00  0.00000000E+00
  0.00000000E+00  0.00000000E+00  0.00000000E+00
  0.00000000E+00  0.00000000E+00  0.00000000E+00
  0.00000000E+00  0.00000000E+00  0.00000000E+00
  0.00000000E+00  0.00000000E+00  0.00000000E+00
  0.00000000E+00  0.00000000E+00  0.00000000E+00
  0.00000000E+00  0.00000000E+00  0.00000000E+00
  0.00000000E+00  0.00000000E+00  0.00000000E+00
  0.00000000E+00  0.00000000E+00  0.00000000E+00
  0.00000000E+00  0.00000000E+00  0.00000000E+00
  0.00000000E+00  0.00000000E+00  0.00000000E+00
  0.00000000E+00  0.00000000E+00  0.00000000E+00
  0.00000000E+00  0.00000000E+00  0.00000000E+00
  0.00000000E+00  0.00000000E+00  0.00000000E+00
  0.00000000E+00  0.00000000E+00  0.00000000E+00
  0.00000000E+00  0.00000000E+00  0.00000000E+00
  0.00000000E+00  0.00000000E+00  0.00000000E+00
  0.00000000E+00  0.00000000E+00  0.00000000E+00
  0.00000000E+00  0.00000000E+00  0.00000000E+00
  0.00000000E+00  0.00000000E+00  0.00000000E+00
  0.00000000E+00  0.00000000E+00  0.00000000E+00
  0.00000000E+00  0.00000000E+00  0.00000000E+00
  0.00000000E+00  0.00000000E+00  0.00000000E+00
  0.00000000E+00  0.00000000E+00  0.00000000E+00
  0.00000000E+00  0.00000000E+00  0.00000000E+00
  0.00000000E+00  0.00000000E+00  0.00000000E+00
  0.00000000E+00  0.00000000E+00  0.00000000E+00
  0.00000000E+00  0.00000000E+00  0.00000000E+00
  0.00000000E+00  0.00000000E+00  0.00000000E+00
  0.00000000E+00  0.00000000E+00  0.00000000E+00
  0.00000000E+00  0.00000000E+00  0.00000000E+00
  0.00000000E+00  0.00000000E+00  0.00000000E+00
  0.00000000E+00  0.00000000E+00  0.00000000E+00
  0.00000000E+00  0.00000000E+00  0.00000000E+00
  0.00000000E+00  0.00000000E+00  0.00000000E+00
  0.00000000E+00  0.00000000E+00  0.00000000E+00
  0.00000000E+00  0.00000000E+00  0.00000000E+00
  0.00000000E+00  0.00000000E+00  0.00000000E+00
  0.00000000E+00  0.00000000E+00  0.00000000E+00
  0.00000000E+00  0.00000000E+00  0.00000000E+00
  0.00000000E+00  0.00000000E+00  0.00000000E+00
  0.00000000E+00  0.00000000E+00  0.00000000E+00
  0.00000000E+00  0.00000000E+00  0.00000000E+00
  0.00000000E+00  0.00000000E+00  0.00000000E+00
  0.00000000E+00  0.00000000E+00  0.00000000E+00
  0.00000000E+00  0.00000000E+00  0.00000000E+00
  0.00000000E+00  0.00000000E+00  0.00000000E+00
  0.00000000E+00  0.00000000E+00  0.00000000E+00
  0.00000000E+00  0.00000000E+00  0.00000000E+00
  0.00000000E+00  0.00000000E+00  0.00000000E+00
  0.00000000E+00  0.00000000E+00  0.00000000E+00
  0.00000000E+00  0.00000000E+00  0.00000000E+00
  0.00000000E+00  0.00000000E+00  0.00000000E+00
  0.00000000E+00  0.00000000E+00  0.00000000E+00
  0.00000000E+00  0.00000000E+00  0.00000000E+00
  0.00000000E+00  0.00000000E+00  0.00000000E+00
  0.00000000E+00  0.00000000E+00  0.00000000E+00
  0.00000000E+00  0.00000000E+00  0.00000000E+00
  0.00000000E+00  0.00000000E+00  0.00000000E+00
  0.00000000E+00  0.00000000E+00  0.00000000E+00
  0.00000000E+00  0.00000000E+00  0.00000000E+00
  0.00000000E+00  0.00000000E+00  0.00000000E+00
  0.00000000E+00  0.00000000E+00  0.00000000E+00
  0.00000000E+00  0.00000000E+00  0.00000000E+00
  0.00000000E+00  0.00000000E+00  0.00000000E+00
  0.00000000E+00  0.00000000E+00  0.00000000E+00
  0.00000000E+00  0.00000000E+00  0.00000000E+00
  0.00000000E+00  0.00000000E+00  0.00000000E+00
  0.00000000E+00  0.00000000E+00  0.00000000E+00
  0.00000000E+00  0.00000000E+00  0.00000000E+00
  0.00000000E+00  0.00000000E+00  0.00000000E+00
  0.00000000E+00  0.00000000E+00  0.00000000E+00
  0.00000000E+00  0.00000000E+00  0.00000000E+00
  0.00000000E+00  0.00000000E+00  0.00000000E+00
  0.00000000E+00  0.00000000E+00  0.00000000E+00
  0.00000000E+00  0.00000000E+00  0.00000000E+00
  0.00000000E+00  0.00000000E+00  0.00000000E+00
  0.00000000E+00  0.00000000E+00  0.00000000E+00
