   792
 Wannier centres, written by Wannier90 on21Jan2025 at 07:46:58 
X          2.85796849      12.46439809       5.47562044
X          4.03805530      12.35167899       4.76486489
X          0.72995616       6.27575597       4.91765138
X          1.52878667       6.14484544       3.63030641
X          2.80901629      12.97581550       5.29331713
X          4.00085360      12.86728896       4.60453078
X          6.14162165      12.78244370       6.07121122
X          6.20441100      13.08900292       5.46514236
X          7.14089971      12.12748949       2.13514162
X          6.36292450      13.95152543       8.53341966
X          1.84884306       6.43256485       3.98932511
X          4.68732674      14.48983861       6.50412079
X          8.17097513       1.81957054      11.76361962
X          3.58513212       2.71958062       4.45506545
X          7.90779659      14.39783352       0.37172728
X          0.55388137       5.84198746       4.68291110
X          9.55662605       9.72337638       8.35975347
X          3.56456700      10.00708552       6.08540554
X         11.43198632       8.23170061      11.50785843
X          6.90539278       3.78597944      11.09984817
X          8.40222523      14.05856408       6.21875989
X          2.61798549       9.74152851      12.82086621
X          5.88179527       1.27570088       2.96328487
X          5.95862829      15.95133271      14.37397369
X          9.28422028       6.96722645      12.59480036
X          9.60914345      12.93755641       2.91882582
X          6.20095763       6.89220943       3.95524999
X          7.53218795       5.52319009      13.54558283
X          9.51851706       4.40421529      11.91497284
X         10.16855453      15.52168279       1.47068590
X          1.19540461      10.70324257       5.70743344
X          9.50451133      12.17567141       0.43121462
X         11.92041476      15.64897403       7.13750010
X          1.30842055       3.47383415       0.43345542
X          1.03072689      14.39476486      13.86387031
X          9.86722578      15.04038635      12.61802126
X          1.52610165      11.88632078       0.36305263
X          0.54228030       9.20900259       1.25826690
X         11.16192404       3.30523259      10.21132761
X         11.68669860       5.40434436      12.36026054
X          3.95222369      14.10102668       9.96912445
X          2.18862329      11.03430067       3.08148534
X          8.54454037       2.30861378       9.50423140
X          8.53902093      15.31427924       9.75210099
X          3.01339116      15.24522910       0.07200453
X          9.24922849       4.60738253       7.78704003
X          6.03405096       0.74473231      10.27483867
X         10.80862062       3.77611354      14.32806877
X          9.64086930       1.55295555       7.18286725
X          6.24193266      10.38584450       5.00106794
X          2.02140999      10.96755323       8.06950848
X         11.71421995      10.45004403      13.44068268
X         10.82090570       6.32342530       9.75911320
X          0.87515686       0.36357951       2.09792673
X          5.71993718       7.54938142       0.29992689
X          5.04954415       4.09571276      13.75180147
X          6.84580037      14.16857165      12.11202885
X          1.09017203       8.42762128       3.83014418
X          9.66155301      10.04347158      12.23775409
X         10.53867477       6.31564258       0.58064670
X          1.42390907       3.33363974       3.29914297
X          7.24943017       8.52657559      12.06163875
X         11.45539185      11.29861552      10.30549648
X          3.88147276       6.80081888      13.84646370
X          9.51766254       1.52317488      14.56030144
X          5.36010683      10.20342335      13.91596878
X         10.00843782       8.23889901       9.14058702
X          7.71942588      10.46293932      10.04220245
X          1.02628139       6.48999068       1.36633846
X          7.15562581       3.13334412       0.54964230
X          8.24001804      15.28562242       2.91946089
X         11.90132596       1.15293809      14.18947908
X          7.70762616       6.64100137      10.95561462
X          3.99923608       5.29898404       4.02464668
X          0.63711845       0.60248290       9.30945334
X          7.10356026      12.00163829       1.60895121
X          5.04157468       8.75601992      11.26860265
X          2.67767012       3.12676747       7.83571103
X          2.95615653       4.44937785      12.62828062
X          5.70957453       4.94022053       8.88533212
X          9.86806933      11.98005444       7.87341022
X          2.30363694      12.25262190      10.38887845
X          7.56591082       6.39992912       7.49624731
X          8.87963343       5.22345243       4.83778934
X          3.88154214      13.06511516      12.60709321
X          5.77020008       5.37050284       1.83245939
X          4.77553025      15.86368582      11.66896613
X         10.16528302       3.52955862       4.63437603
X          4.06377895       7.23183908       2.17818279
X          2.51852385       0.92199348       6.05168944
X          4.53318890      12.23314651       8.08791946
X          2.63213999       7.41242170       5.93465513
X          3.76142932      15.90837347       3.49613302
X          2.99208298       7.35465762       8.72500304
X          6.86308255       3.77530697       3.56228663
X          5.17544800       6.01424239      11.28857928
X          7.38984531      11.92099739      12.84244466
X          7.11030024       9.35067052       6.74705259
X          5.45909168       7.35357804       6.74588482
X          6.39626517      15.85462206       5.11225957
X          4.73029554      11.16423257       2.33577233
X          0.33115304       1.34107353       4.89599579
X          0.40076612      13.49557187       2.44515313
X         11.06448782      10.81303319       3.53288819
X          1.66160741       4.33149385       9.30808493
X          7.21425335       0.23202424       7.41239217
X          1.65182801      14.99927897       4.17211510
X          5.51737108      13.34062445      14.30401980
X          6.18260313       4.99974935       6.03494670
X          3.93564072       0.10993492       8.57223666
X          3.85974261       2.22652925      13.37257932
X          8.34313504      10.29939226       3.21761528
X         10.25642426       8.86845968       1.16351657
X          2.46285127       1.68323205      10.32444228
X          2.51234213      14.02937462       8.02213654
X          7.66908580       9.87069626       0.30681624
X          8.72851533      11.17979211       5.39211764
X          1.00661471       2.70843052      11.99035182
X          9.05685896       4.34159883       1.82437948
X          4.86084639       2.12273156       6.34239492
X          3.06389275       7.47012765      11.14515074
X          1.13744105       7.46733498      13.21622897
X         10.98254833      13.38899742       5.57966338
X          6.82049355       3.11963802       7.38839538
X          1.31096687       3.87418735       6.37214138
X          7.93713353       1.95633514       5.32320554
X         10.53911711       6.75106855       3.22761962
X          3.84948501       9.09961637       4.14215544
X          3.97235674       4.99571379       7.12459900
X          3.49831612      13.24386441       2.01459549
X          1.71918509      14.94778823      11.53606934
X          8.92918106       2.41608797       2.88029255
X          3.05208320       4.63592138       1.87340610
X          7.68679328       7.11985996       1.88880589
X          4.63397225       9.76570235       8.79948295
X         11.58931798      13.94829867       9.59541658
X          5.82469599      13.93488482       2.83754019
X         11.16881695       1.37118475      11.79229203
X          3.55746847       2.63638170       1.48087890
X          1.83729390       9.21662962      10.24819336
X         12.02784296       8.80798868       7.41750843
X          6.59843860       9.06121918       2.31359965
X          8.38729726      13.84189969       6.71462118
X          1.37724862       5.90320719       7.25923378
X          9.38530136      12.60107710      11.14060490
X          4.42511690       2.69333834      10.61310692
X         10.61496038       6.73674269       7.02411156
X         10.51025678      15.72582693       4.24503424
X          3.09405934      12.86552580       5.72001069
X          6.52739527       8.51815144       9.24211544
X          5.25019317      11.35974169      10.82815167
X          6.63084262      15.32139287       5.45487788
X          9.60502001      11.87668398      14.34993674
X          9.22946823       8.68021733       5.22098689
X          3.14138235       5.14125958       1.42763123
X          0.37608702       1.79694553       5.15415357
X          9.25308566      11.40391813       5.38177929
X         10.53088137       1.15136658      11.95058441
X          3.54703631       2.18247282       2.04662669
X          8.40363947      10.04727585       3.74228808
X          7.55870171      14.36204050       0.74692012
X          6.56625994       8.88585267       2.76693340
X          3.60542475       0.63863521       8.45810461
X          8.97723717       4.50406813       2.48625240
X          7.98150578       6.65487734       7.55344950
X          2.67828294       7.99430922       6.02937825
X         10.85162925      11.10592959       3.92979720
X          1.86644800       9.28155937      10.76899033
X          4.63613310       5.83143573      11.21695002
X          2.06162110      10.41291069       7.90468616
X          8.89198858       1.74121798       2.63669369
X         10.84194570       6.56903501      14.38242235
X          5.16240243       7.63957627       7.02228701
X          9.53960787       8.97965667       1.27888944
X         10.18749840       0.34384587       4.15209461
X          9.03732255      12.97492995      10.99461324
X          1.56478506       3.05347502       0.46459901
X          4.66629788      14.60737450       7.08509466
X          1.08926174       2.14445490      11.91831335
X          2.82874189       0.85136267       6.54270509
X          7.78337802      15.59494774       3.12819628
X          4.23262029       3.18163417      10.45280664
X          1.05091270       3.42739375       5.92504558
X          2.78410666      12.00422432      10.38273785
X         11.52095309       1.01728856       0.44263846
X          6.82739398       8.05180453       9.52406639
X          9.52122111      12.35086487       3.10193096
X          6.81066055       0.54845309       7.27231408
X          1.46864117      11.84911047       0.94501612
X         10.18455759       7.06740113       3.22872612
X          3.06407538       7.03451685      11.70822664
X          3.77206938       6.38111090      13.46283489
X          1.82758714      11.36874619       2.80408262
X          4.86291487      11.41196588      11.16519833
X          6.43033492      14.56021634       8.61322717
X          8.91567709       5.47820172       5.50213146
X          8.55272648       9.66203146      14.32097322
X          4.75220171      10.09045566       9.15416084
X          3.46490957       6.93888239       1.97619024
X          9.03022688       4.09148632       7.65850059
X         10.69467263      15.76302509       1.49733685
X          4.00998432       0.07674880      11.77944510
X          1.00871699       7.93670005      13.07108966
X          8.65751606       2.05342541       5.30199956
X          6.24637227       6.69794322       3.39307750
X          1.79637995       4.59365189       9.80882407
X         10.78061624       3.28498925       4.65863486
X         10.51976444       3.29917309      14.43501486
X          3.66140619       5.65384588       7.11685640
X          2.83752671      14.28934942       8.28306454
X          4.95754322      10.92111863       2.86393099
X          9.14681829       4.13555542      12.14790959
X          9.31216016       1.90992256      14.37676445
X          5.31190517       1.87590089       6.54262570
X          4.81455516       3.87343532      14.19037943
X          5.95162186       0.13494029      14.04281068
X          8.78832100       2.68724204       9.10931656
X          6.92276262       3.70490401       0.55964474
X          1.21341196       9.05807169       3.79940128
X          5.75052201       0.73597053       3.05225893
X          4.18333102      13.88391702       9.55539902
X          3.36806359      13.47318384      12.58992391
X         11.85641045       7.92473744      11.72505565
X          5.83016167       0.92830830       9.87855536
X         10.93435920       6.12649571       9.32686599
X          9.36980441       8.27184089       4.82816630
X          4.27321588      12.73138370       7.94061491
X          8.36479573       6.89832547       1.98410659
X          2.18098683       1.32747403      10.68109377
X          6.61932357       3.88180035      11.49751979
X         11.64126446       5.33206193      11.71862299
X         11.43531330      10.79865927      13.73917783
X         12.00892310      11.25740570      10.09452129
X         10.04538582       6.36971054       6.78761573
X          0.60840992      15.26876463       7.23167801
X          5.75182172      14.37668500       2.63744115
X          5.56436795       4.56290135       9.34455604
X          7.05918704       8.62566201      12.67852455
X          1.08131483       6.94301497       1.50665995
X          5.77412128      12.89463794      14.09963341
X          7.57735954       9.24223172       6.72203633
X         10.69031935       3.36928476      10.55075675
X          7.38523333      11.45617389      12.74858153
X          1.54348736      14.71541105       4.66197503
X          0.54123905      14.67416324       0.10415939
X          2.55909944       4.61897280      12.30117947
X          9.76328424      10.45334895      12.49047933
X          7.15331325       5.11821943      13.60288212
X          5.60101147       7.80079357       0.73704959
X          2.93733856       0.09573833       3.37116550
X          3.22518434       3.06868906       7.84258236
X         11.85737710      14.24993921       9.13001289
X          0.82358567      13.01593795       2.46325100
X          3.92629116       4.69988129       3.88671962
X          9.91618982      12.40977808       8.16961685
X          4.31066496      12.74962564       5.08943991
X          1.24259106       3.23219303       3.87175481
X          5.92568863       9.90444602      13.83761786
X          6.98077545      14.33082441      12.69491406
X          7.38448256      10.30008544      10.42213016
X          3.81008806       2.29887613       4.03673238
X          2.21985672       9.96027618      13.28196534
X          5.58223853       5.78419752       1.55517341
X         10.08934488       6.95809931      12.52061002
X          8.07815598      15.09966652       9.55635093
X          3.55557707       1.88409431      13.52069188
X         10.66626538      13.42672703       5.22104807
X          2.81453378      13.05102374       1.91865672
X          9.73117597      15.63400372      12.63487800
X          7.48612411       2.93288968       7.57491414
X          3.57994275      10.38623971       6.61074192
X          4.40512000       9.30832184       3.82404700
X          0.40532713       0.35842284       9.62454115
X          6.60940996      10.47538497       4.69689739
X          3.84698145      15.54104749      13.93000078
X          1.08208841       6.13813408       7.69987708
X          5.69466390       4.81244281       6.20785984
X          8.57514194       1.46276026      12.12051555
X          1.05028222      10.48204549       5.13731377
X          3.44715357       7.60155291       8.81947842
X          0.90780727      15.89776749       1.63034306
X          7.75286535       5.96810145      11.12092817
X          9.58510314       1.82374561       6.69307914
X          5.46789935       8.36007660      11.01381052
X          0.82364048       9.53763572       0.81181192
X          6.52905421       4.29676163       3.81130197
X          4.97312948       7.12372852       7.00893207
X          1.40241627      15.36912440      11.70462643
X          9.16911462      12.77430219       3.16443888
X          0.47447989       8.16080069       7.43062396
X          1.65809294      10.86089417       3.17512251
X          5.73041930      15.94876079      13.86655641
X          1.77850610       5.85385660       3.98351866
X          9.92137908       8.88312994       8.63644369
X          5.69524426       1.11580807       3.41020705
X          6.69842752      12.42594905       1.79721985
X          7.31190424      14.31365072       0.19347384
X         11.42286907      10.78527155       3.99282484
X          0.82509222      15.46639326       6.65459605
X          8.05012579      15.65138281       2.64683176
X          8.92700543       4.50983079      11.81771881
X          7.95008854       6.38495252       7.08300506
X          3.43746853       6.59614111      13.90058176
X          8.75818956       1.88681927      11.61705117
X          5.02210924       5.38565374      11.19819633
X          0.34106699       6.33174664       4.49765870
X          3.34011601       7.26901954       8.16166863
X          8.28562777      13.53633269       6.30111651
X         10.16003067      15.95376367       1.83222325
X          9.30634015      11.54362305       0.38657087
X          6.47794060       4.13982898      11.04926784
X          1.10538961       3.05506503       0.04434428
X          3.11403894       9.87120651       6.48142985
X          0.77807463       3.88233151       6.08496780
X         11.51403187      11.03266435       9.89329228
X          4.75518072      15.03284314       6.60053604
X          9.01742541      11.61597493       4.99320568
X          3.38398186      12.95875175      12.51251817
X          8.18971353       7.19195038       1.56779838
X          9.69701138      12.40774236       7.49578585
X          4.07443268       1.62551733      13.51108927
X          3.59430258       2.97562657       3.88918861
X          2.87702861       4.35044769      12.01355427
X          7.16588361       8.78236027       6.98849322
X          1.68446633       8.50602350       3.71825078
X          9.27102658      10.53494691      12.06333766
X         11.95975229       5.67854592      12.09551710
X          1.51121971      14.38926493      13.91975274
X          6.04471558      13.50994637      14.25610273
X          5.28226974       4.71887914       8.84277398
X          0.83812141      10.35730970       5.66703719
X          2.52548447      10.78191568       8.16402463
X          1.83473506       3.57306510       3.58627430
X          1.27972758       5.49543261       7.60983595
X          2.43762183       0.43629725       6.22455299
X          4.12110922       0.66858760       8.38315836
X          4.58938623       5.02387446       4.01597475
X          6.20557038       0.44298703       9.73415571
X         10.61307824       3.50209007       5.09823841
X          1.89513619       9.77931327      10.25676422
X          6.94978349       8.18460519      12.09221562
X          7.26801312       6.52636969      10.92208359
X          3.48622068      12.70749580       5.14984594
X          5.90395533       8.14478717       0.22299654
X          9.41747561      15.17180806      12.72590725
X          9.07592208       4.63031485       7.28361278
X          3.95742808       3.18988144      10.85264892
X          4.76676802      11.88758163      10.95590530
X          7.60346642      11.71926026      12.29781085
X          7.87230238      10.73842718      10.59526003
X         11.43203701       7.75399157      12.07978558
X          9.40806842       4.72721048       2.13572371
X          8.85658949      10.43390459       3.42175368
X          8.60765680      14.82966747       9.64880095
X          7.63035185       3.40415083       0.57335903
X          4.42018091      14.03591843      10.04811862
X          4.60859044       1.85146137       6.78769184
X          6.06373846       9.20170615       2.72118586
X         10.15167271       6.66025413       2.74242554
X          0.97013241      15.87831423       9.11578629
X          9.85761269       9.27894035       0.71753189
X          6.07716991       6.27071946       3.90185550
X          9.72251868       0.21679953       3.95518654
X          9.33529643       2.10729945       7.35309342
X          2.34220972      11.84196071      10.65113749
X         11.25226235       6.44133244       9.42512664
X          2.32141654       9.42998262      13.10602495
X          7.10179875       5.57672283      13.29718824
X          9.33963713       2.05146442       2.62968952
X          2.10919179      14.47870289       8.21508285
X          5.49759370      14.26056470       3.00216094
X          5.25257060       3.72616023      13.95126028
X          0.47250744       1.15701068       5.38411537
X          4.81533673       8.56809245      10.72833903
X          1.13337803       6.14118903       4.27615196
X          1.07637437       2.52266088      12.52150750
X          0.58965568       8.83435511       0.93862982
X          5.70637401      10.57953291      13.60597510
X          9.46416065       1.35161421      13.95081434
X          8.96748478       2.61065409       9.82647715
X          0.72262685       0.89215432      13.94644773
X          3.15314745       7.47228814       6.13757958
X          6.32800597      13.68240012       6.15561422
X          7.78139776       9.44291626       0.62908280
X          3.97265982       2.47433624       1.97141159
X          4.06861881      12.04231516       7.85197045
X         11.15984677       3.89308095      10.40881597
X          8.98643730      12.28592528      10.98436735
X          9.49601512       4.33043660       7.47162431
X         11.21272660       3.29316650      14.21782095
X          0.46327911      13.39613711       2.95653313
X         10.59608481       6.85947093       0.73753661
X          4.76912866      11.54344138       2.66951359
X          1.75017615      11.50854186       0.60203083
X          6.42642807       7.97361070       9.27984766
X          3.60670604      15.88798229       3.01924485
X          0.95499631       6.94520113       1.07899198
X          7.23051229       2.87045733       7.06015147
X         11.29364178      14.11042552       9.29844797
X          9.46601415      12.19421284       7.98954695
X         10.16851717       6.86910846       6.77920063
X          8.39698664      15.82549601       3.01224450
X          4.35712697       0.25386085      12.22612911
X          2.99747857       2.51229276       7.75186997
X          6.05223095      10.30324744       4.39058448
X         10.69344447       1.57339209      12.18017995
X          2.60150742       1.95291172      10.74222141
X          3.27224150      15.11728340      13.78167448
X          6.87459991      15.99299899       5.24412956
X          4.26241588      10.16242512       8.63575740
X          1.24352946       3.70962260       3.58503560
X         11.32919262      10.36912424      13.85893757
X          1.87864641      15.10619250      12.07905991
X          1.54132015       2.70907456      11.97885815
X          5.44884956      14.62351010       6.61475347
X          3.22848140       5.05961207       7.22634475
X          5.83695387      14.23986118       8.46017609
X          7.42971351      14.21186674      12.16423601
X          8.70864993       5.75938571       5.07546429
X          1.34288004      10.11099632       5.74091511
X          4.01109779       2.78493121       4.20309489
X          2.24891209       0.85550299       6.44892147
X          8.97832581      11.81218511       5.63097241
X          7.15205634       4.16863171       3.56136469
X          4.65259348       3.38986523      10.73463125
X          0.82736825       7.66891046      13.80589697
X          1.08164861      15.78075697       2.23026276
X          9.90667018       9.37406442       1.22663114
X          5.84417531       5.03688002       5.52179837
X         11.98807158       8.34364271      11.92066974
X         10.37438128      13.25677603       5.82698971
X          8.29803074       2.35361566       4.83441288
X          3.53587132       2.82639999       2.24556754
X          5.88756340       5.27048619       1.21324122
X          3.02363471       4.98897748      12.29202304
X          2.95618383      13.69137530       2.06513074
X          1.11841907      14.03823153      14.19910183
X          3.51813381       7.47172428       2.05984134
X          2.92863696       7.61954008       5.47201881
X          7.33124107       9.11074304       6.32252849
X          9.27912992       3.89122713      11.61922319
X          5.30467760       1.20069370       3.02135702
X          1.78613143       3.32564284       0.13767818
X          1.76273744       4.09153871      10.00378386
X          5.18116203      11.44057154       2.43839825
X         11.44152045      11.59693858       9.85717492
X          6.65747103      10.03199500       4.80160291
X          7.86153401       9.43925203      14.29318809
X          3.53232713       5.21965937       6.80758606
X          3.81484380       2.23589126      13.88362255
X          3.46608373       7.29084867       2.58787641
X          6.18413670       8.55386926       2.45245408
X          1.01872404       9.12572477       1.21954653
X         10.76709609       3.58301305      10.11801536
X          3.63715021       9.85913282       6.57169343
X          7.40639533       8.20299871      12.37389606
X         11.47649027       5.90562480      12.22715111
X          4.96924413       2.44379446       6.77718245
X          7.46524581       5.24852955      13.04488370
X          3.02520837       4.51829753       1.18466986
X          6.79162989       8.06899220       8.80240474
X          1.23872715      11.42220387       0.49549633
X          7.13958796      14.58323948      12.17220510
X          6.04637341      14.53352101       3.13970944
X          9.13228681      12.69135126       2.54102242
X          1.99013684      10.68129763       8.54447714
X          7.31315309       3.34138632       0.92866262
X         10.50756513       1.73301935      11.64711874
X          8.60132101       2.02427726      11.98742782
X          5.61383332       4.44057462       8.65471434
X         10.40705325      15.48456420       1.91180845
X          9.84801714       1.95468575       7.05431321
X          5.27768658      13.17115898       0.48871974
X          2.70550916       4.88330629       1.51109217
X          3.99328221       0.64565588       9.01823119
X          9.07263488       1.41168683      14.39980760
X         10.02882042       6.47608870       0.75437427
X          8.83131293      12.36172941       0.83030573
X         10.40624855       3.48791318       0.39185537
X          5.83807271       6.75169268       3.52871294
X         10.70897207      13.76383067       5.51657640
X          0.92500322       3.57613709       6.48522156
X          1.46602587      15.26153475       4.82784637
X          3.01773433      13.29125581       2.35347821
X          5.19594933      11.68522020      11.46928101
X          0.91038240       8.73398000       7.17985126
X         11.50252948       1.61317490       5.55732614
X          7.07933244      15.71125110       7.23943921
X          7.65186850       6.30879651      10.58372900
X          4.24387135       9.65098267       9.13629345
X          9.45954200      15.14318427      12.23930025
X          8.54102581       2.77692051       9.59491584
X          2.90494080       1.36640014      10.48759538
X          2.36762200       9.24058065      10.30453166
X          3.46138331       0.55466945       3.29794103
X          4.07502653       8.71560871       4.02565908
X          2.04926682       9.52042316      12.74840562
X          8.39177583      14.95163482      10.14320122
X          9.92953530       0.44030517       4.59663491
X         11.45323013      13.65148303       9.20589667
X          1.49121379       8.62668839       4.16863602
X          8.19256664       7.59144191       1.92608674
X          5.57129080       0.60106467      10.03543575
X          0.88231137      13.62697728       2.64104562
X          9.25776244       5.86159679       5.01647695
X          6.15512272      15.50643778      14.06532582
X          1.21932950       4.52038931       9.81520032
X         12.18869136       7.61467466      13.53069869
X          7.56233084       6.89286987       7.26287772
X          8.58430781       9.86756046       3.09759212
X          5.38842018       9.02230826      10.80011212
X          3.31583533      15.51116183      14.03942347
X          5.55646507      10.13758719      13.47449068
X          2.70132681       7.05228983      11.28393311
X          4.31673545       0.42951801      11.50930991
X          2.23922467      11.73441613      10.12365737
X          5.46594927       4.19244439      14.18261510
X          0.81077942       0.39054899       9.77214911
X         10.34000360       2.90777535       5.02120808
X          1.62549748       6.66565449       1.26203773
X          7.29622292      10.71679023      10.24592207
X         11.20594359       5.85243878       9.83494351
X          0.56150285      15.76613739       6.97559629
X          9.00778125       2.29376144       2.16274618
X          1.88124305      11.30389474       3.35170919
X          9.47238889      10.25464422      12.71400422
X          7.00653789       4.26532922      11.39167488
X          2.51270723       7.54172164      11.60232328
X          3.60612078      13.10939587      12.05201554
X          6.36145800      14.29018403       7.85204657
X         10.59275015       7.14830633       2.75728387
X          4.49856448      12.28707732       7.60647161
X          2.96301312       2.85720586       8.22196538
X          9.46943848      12.60107223      10.58426240
X          7.03911614       2.50112346       7.24486826
X          7.67175676      12.60093232       1.62814606
X          6.89898614       0.17826727       7.91832206
X          3.12052664       7.76074350       8.49975162
X          4.05880390      13.57254516      10.19014412
X          1.48628358      15.76870876       1.99480295
X          4.10017126       4.98835663       3.61776057
X          3.83618144       6.34403518      14.11407623
X          2.68283769      14.42543358       7.85825676
X         10.38796381       6.72945745       6.31742997
X          8.96214719       4.97363048       2.00396117
X          8.74501704       8.62404792       5.01658818
X         10.88440860      10.58704839       3.92361449
X          1.02707030      14.82165989       4.46193523
X          6.01482490       7.66255239       0.73853217
X          7.78624208      13.82453508       0.65022585
X          3.81690330       8.89045483       3.73579015
X          7.75853640      13.98824363       6.45089263
X         12.01455094      10.59017625      13.99063309
X          8.48615860       1.78757259       4.99200293
X          5.53009333       7.34488535       7.27543813
X          6.93359480      11.72257090      12.60612233
X          6.00356392       5.87245249       1.65135973
X          4.78136853       5.74115520      11.69933367
X         12.10799638       1.58512637      14.47337567
X          9.95241681       7.11459397      12.77201374
X          6.72088067      15.60480832       4.70974828
X          1.75915684      15.56599200      11.50354429
X          9.17665275       8.13352467       5.24291594
X          0.79628947       5.96004756       7.41469276
X          0.80831405       8.37650712       6.92283580
X          7.19258438       3.96542061       3.93805195
X         10.06566989       6.80642951      12.81563315
X          9.56444707       8.87250227       8.76779594
X          9.85006187       9.07385589       8.95844961
X          5.98982866       4.58823142       5.91398714
X          8.40500429      13.02144107       1.43007287
X          8.38422469      13.01890020       1.43686991
X          6.54391771      14.47830466       6.56102104
X          6.54666711      14.47103949       6.55799935
X          8.41399093      12.99593347       1.41269436
X          6.52806327      14.44684578       6.54818739
Fe         3.11190500       3.88261200       3.20152160
Fe         6.67119890       1.50159220       6.19142570
Fe         2.00253030       4.34957790       7.56150510
Fe         4.30911220       1.00986560      10.32671740
Fe         2.52846640       3.37611200      11.09176680
Fe         3.14116070       3.39017740       0.21598920
Fe        11.53345520       7.98163240       1.32388300
Fe         2.91721570       7.78220410       3.88851250
Fe         1.93815450       9.27768270       6.45056650
Fe         3.57496020       8.36562200       9.96912290
Fe         1.45694200       8.54903410      11.97531460
Fe         5.87870460       7.14550260       2.06631030
Fe         2.35701720      14.98158670       2.76766890
Fe         5.09832950      12.89429390       2.00159580
Fe         4.22780190      14.11786270       8.26064740
Fe         5.89732160      10.21215080      10.06358720
Fe         2.44943400      14.40874160      13.05294750
Fe         5.63512320      11.79825540      13.01425570
Fe         8.60974870       3.75364890       3.85525830
Fe         9.90009570       1.64751320       5.49692260
Fe         5.28244590       4.01342120       7.28564470
Fe         0.87936340       0.86823200      11.00246440
Fe         9.56769420       2.78207580      10.98800980
Fe         8.89554380       3.06677800       0.84299180
Fe         8.18404600       9.00134960       1.94086600
Fe        10.18730280       7.03271270       4.79743610
Fe         7.82955600       9.67321840       5.21324660
Fe        11.45818380       7.18152340       8.22056740
Fe         6.62299680       7.63891280      10.92601620
Fe        11.08142960       6.88158250      12.87236930
Fe         8.40026300      13.02587620       1.43363300
Fe        11.39812740      14.42623640       4.33128660
Fe         6.54577320      14.47660330       6.55898600
Fe        10.51368580      12.57777250       9.44441600
Fe         8.61123420      14.37194240      11.40867130
Fe         9.96736140      10.23767930      13.95837650
O          1.34908130       3.44585290       3.53777680
O          3.79126050       2.63824650       4.29156040
O          3.68116620       2.46689590       1.88961870
O          4.18685630       5.10245710       3.93679920
O          0.27561670       1.41042200       5.13829160
O          2.97733670       4.81472230       1.49971420
O          1.35128370       3.24748900       0.32909840
O          5.71059540       1.13511620       3.08077700
O          1.18736140       5.89720880       7.44695040
O          2.97565020       2.85302750       7.97588340
O          4.88946610       2.07181010       6.58341780
O          4.37299190       3.10962390      10.65935280
O          0.58678470       0.34121250       9.34267680
O          0.54588000       8.49243130       7.16135100
O          0.97255850       3.66703550       6.19145800
O          3.90540020       0.47423490       8.56496960
O          1.13763490       2.52958210      12.12171600
O          2.53799710       1.55539160      10.51388700
O          4.29135230       0.08141440      11.87040190
O          5.20419100       3.98946110      13.94361760
O         12.08639000       1.19189500      14.40110930
O          2.83064940       4.63375350      12.39394490
O          1.61947000       4.42619570       9.69113160
O          3.82610080       1.93387930      13.48179970
O          1.26043640       8.64618220       3.84930530
O          1.22490830       6.66487910       1.35910370
O          3.65742090       7.25367820       2.17347150
O          4.09504600       9.09803750       3.96505240
O          0.63829870       6.13435840       4.66287660
O          1.94574590      11.12651840       3.11345850
O          0.82964840       9.26649890       1.13384130
O          1.63501650       6.11422910       3.91346260
O          2.11262770      10.73428340       8.15101030
O          2.84291060       7.58524770       5.89046420
O          3.63153420       5.23936830       7.03305550
O          5.28407180       7.36643860       6.97478940
O         10.97475050       6.16217520       9.65309590
O          3.59649640      10.05895510       6.35453600
O          1.02595010      10.55668990       5.55513230
O          3.16353830       7.43234130       8.48968240
O          2.44176650       9.73002990      13.00649420
O          0.93417980       7.56189830      13.36031440
O          2.83639390       7.22229370      11.42603210
O          5.77197370       7.77847470       0.39408830
O         11.75812690       5.46467860      12.09844110
O          2.38824870      11.98363360      10.39862170
O          1.96574580       9.40113540      10.36897130
O          3.76758510       6.56593480      13.82912650
O          1.47307910      14.93130080       4.57108490
O          0.62551770      13.34540320       2.55030980
O          1.51127050      11.70497770       0.56481220
O          5.78561720      14.31025360       2.94611210
O         11.06053640      10.81268760       3.82085220
O          3.34436220       0.17707680       3.38474990
O          0.79227870       0.13771200       2.02307090
O          3.10093720      13.30448170       2.06052250
O          2.43897280      14.28882600       8.06217270
O          4.39177760      12.28511580       7.84297530
O          2.96409520      12.76026840       5.45504670
O          6.25860680      14.18722440       8.46006280
O         11.59093810      11.21621000      10.08085110
O          2.53164700       0.76294490       6.29205510
O         12.13973030      15.70530990       7.28897760
O          4.45457640       9.90495270       8.88132840
O          1.06320550      14.29509080      14.15073370
O          3.60385020      13.10845760      12.47091160
O          4.16060580      13.94299350      10.03488080
O          5.74251200      13.24244940      14.35571180
O         11.70888490      10.59322620      13.69750170
O          3.52721540      15.37686710      14.15880880
O          1.65677750      15.15559470      11.64714000
O          5.01130650      11.59783670      11.09788400
O          6.80627270       4.02610420       3.66303110
O          8.23062220       2.05286030       5.07179670
O          9.05490540       2.11024730       2.60345920
O         10.48443480       3.41025360       4.81323160
O          6.65360210      15.69463810       5.10269610
O          9.10897730       4.63185100       2.10024100
O          7.13621150       3.35824740       0.65563460
O         10.00450730       0.19179970       4.24281740
O          5.57479150       4.73694210       8.97003400
O          7.13693740       2.92128650       7.37029180
O          9.61710360       1.83460430       7.22179610
O         11.01891770       3.52798940      10.25324270
O          6.03180160       0.70459070      10.00345540
O          9.25717540       4.42085320       7.58108250
O          5.99700510       4.93497630       5.88294000
O          8.63231960       2.55631520       9.47443890
O          7.31863600       5.42755940      13.38710850
O          8.37091560       1.75841460      11.89736620
O         10.73108230       1.44154530      11.91087740
O         10.91867880       3.52908880      14.36520770
O          6.06543370      15.91127820      14.11983170
O          9.26420140       4.31230790      11.95416490
O          6.77431040       3.94204840      11.27093140
O          9.32878180       1.43901690      14.32351400
O          6.32482970       8.94683320       2.57047040
O          8.08383570       7.12018810       1.82772760
O         10.38134280       6.50657600       0.52001530
O          9.14429320       8.46632860       5.10581550
O          6.12835300       6.68623140       3.80998640
O          8.53626390      10.18615150       3.37638260
O          8.17207440       9.61954250      14.48268070
O         10.40527270       6.90084470       2.95889090
O          7.25957430       9.13394710       6.80938750
O          7.75204910       6.56149830       7.37471940
O          8.86933390       5.52971990       5.08340490
O          9.90494250       8.47323790       9.06089090
O          4.92671320       5.76080910      11.35104080
O          8.98251740      11.50508130       5.37820290
O          6.26915010      10.40049280       4.73881460
O         10.31176230       6.67557620       6.73837070
O          7.25076590       8.42773450      12.37863340
O          7.70949670       6.26647570      10.83887700
O          9.61971010       9.51241220       8.47584060
O         11.58923120       8.10142050      11.63785280
O          5.78710470       5.45290370       1.56751030
O          7.67375160      10.55425860      10.28448370
O          6.65638580       8.17220340       9.15145610
O          9.49460410       6.98209080      12.61890290
O          7.05013700      12.17127470       1.83473830
O          9.26527790      12.02365130       0.36523830
O          9.94300290       9.11380230       1.12479380
O          4.78536610      14.75223870       6.59759020
O          4.83555610      11.19184430       2.58441840
O          8.12067270      15.55116140       2.90654200
O          7.65817820      14.31081470       0.46325960
O          9.39817000      12.74276550       2.96389180
O          6.97462500       0.19772720       7.51809650
O          8.24631170      13.90249110       6.42711860
O         10.68450770      13.40323920       5.62490500
O         11.57096140      14.04507270       9.32362210
O          5.12481190       8.68337490      11.06682860
O          6.17209640      12.98959150       5.79832090
O          4.00925120      12.65442570       4.84385970
O          9.69281120      12.19014320       7.85176180
O          6.99139250      14.31979500      12.27269450
O          7.42512590      11.72462010      12.64955890
O          9.23478040      12.60050700      10.93437730
O         10.32690130      15.63009710       1.64127780
O          5.56854800      10.12623540      13.77225720
O          9.69090830      15.21734230      12.63693010
O          8.47516010      15.07088720       9.70044930
O          9.55596700      10.28560370      12.23261750
Si         0.44737130       3.06773090       4.80638110
Si         4.14375390       1.51852210       3.12297300
Si        11.68364600       5.00034630      10.50583050
Si         3.54108440       1.49104270       7.32973740
Si         0.68061340       2.53278640      13.71133120
Si         4.32170760       0.39585490      13.46524250
Si         0.90755740      10.22529020       3.96462890
Si         2.80719720       6.40216270       1.08510110
Si         1.51532420      10.82521960       9.68098890
Si         3.74129830       6.88556890       7.08588380
Si         1.46889410      10.28580680      14.18106690
Si         3.58422140       6.06193610      12.28860360
Si         1.13378880       0.15684710       5.80135540
Si         1.78686070      12.32001200       2.04637040
Si         0.95755560      14.89008550       8.36620540
Si         3.72918080      10.85527220       7.75463090
Si        11.83443030      15.90141090       1.09521200
Si         3.75712230      12.65197740      10.92168480
Si         5.80524010       5.14632770       4.29760070
Si         9.15538660       0.49975550       2.83174800
Si         5.42538760       4.36923730      10.51899110
Si         8.65874860       2.96811160       7.94629690
Si         6.13350060       4.56350610       0.25110210
Si         9.43567560       0.89931480      12.78961930
Si         5.35037290       9.96289630       3.46560650
Si         9.43076580       6.20261070       1.81680880
Si         6.72623660       7.78415070       7.56391530
Si         8.95724710       5.73771110       6.72417030
Si         6.74151120       9.01975380      13.81981120
Si         7.82850740       5.01723200      11.90313230
Si         6.60375820      15.57084670       3.45784190
Si         9.56420220      11.38392780       3.81653030
Si         7.12484930      15.54123030       9.00142220
Si         9.41134550      12.76893170       6.40508270
Si         6.77390300      14.44904880      13.86284750
Si         8.45682070      11.26834020      11.51099080
