   936
 Wannier centres, written by Wannier90 on24Jan2025 at 13:14:13 
X          5.84542089      12.98395723       5.76246589
X          9.68523092       9.73302236       8.68458279
X          9.43280393       7.02531144      12.30202634
X          9.32263035       9.47255553       8.40175111
X          6.44593552      12.83805403       5.74494039
X         10.00377988       8.55502279       9.34174677
X          9.40547080       6.78663253      12.87371841
X          8.20860573       1.65038656      11.70308912
X          4.07192383       2.75841569       4.33267194
X         11.67146402       7.96167588      11.37428970
X          1.07371885      10.80813705       5.66751262
X          1.84770999      15.02882370      11.41655134
X          3.71162418      10.04260156       6.10309393
X          0.69313296       9.41064418       1.35363171
X          5.05411744       8.62862212      11.36406724
X          1.42923793       6.08091667       7.58311303
X          2.64211893       9.84466197      12.84829419
X          1.20445285       7.45506373      13.45892155
X          9.62367407      14.91970968      12.65753232
X          6.24458963      10.66361930       4.81777416
X         11.90398819       8.79726750       7.42491570
X          9.81329912      10.28219067      12.09828349
X          7.96054308       6.30931063      10.72990103
X          0.79494480      14.28947671      14.01848263
X          9.49786498       4.47434379      12.00376733
X          3.17307517      15.40023466       0.12995594
X          6.89197390       4.04825071       3.38159489
X          9.42872174       1.32513076      14.57712977
X          6.35710523      13.93406547       8.49751478
X          7.77983814       7.10213781       1.78845396
X          5.40150418       9.87863274      13.80232941
X          3.97839718       7.24590314       2.19401862
X         11.64622657       5.27697529      12.29692465
X          9.49534311       1.57100586       7.25631387
X          1.29985833       3.49688953       0.45186999
X          6.16391634       0.71365660      10.25447355
X          0.74569877       0.41706514       2.00189220
X          6.20927830       6.94334826       3.91164503
X          7.79892420      10.57342396      10.03905992
X         11.71833148      10.84053415      13.54246126
X          1.12158982       5.92155130       7.11324867
X          2.59411817       4.77579996      12.48795005
X          6.95548245       3.19285236       0.79773666
X          6.93558917      14.61677826      12.31184917
X          9.65086473       8.29537892       9.04701198
X          8.61676505      15.07952011       9.46285450
X          7.25587804       8.71534557      12.27386630
X          1.98797233      10.96209253       8.07756936
X          9.08636268       8.23918349       5.34129484
X          3.54341886       2.53376656       1.61374424
X          8.80630800       5.24063807       4.92425218
X          5.87599785       7.58032287       0.20040972
X         10.80248258       3.79211298      14.34220928
X          3.84447759      13.09321926      12.65434883
X          6.28472533       4.91423662       5.90709307
X          2.92618154       7.28151379       8.53494453
X         11.92111895       0.56244032       9.73983067
X          7.01907991       9.30680345       6.87509128
X          8.23134954       1.87095026       4.80588861
X          5.80308698       5.28422759       1.81516952
X         11.18826831       3.27987574      10.27426367
X          8.39638393       2.39443872       9.48016926
X         11.32291175      11.40413423      10.00600922
X          7.63498979      11.82990645      12.83032362
X          5.23147562       3.90330503      13.67304044
X          4.44359051      14.04900032      10.05403006
X          6.91327893      12.00793938       1.82742174
X          1.14543329       6.40949621       1.21958157
X          8.72467628      11.32909249       5.39493556
X          2.45807782       1.63394342      10.21345392
X          0.97931134       8.52125335       3.85910499
X          3.86133172       5.07103448       7.18073457
X          4.65225835      14.75406845       6.40717484
X          5.74595096       4.96092078       8.95016914
X          1.18196739       3.38328660       3.32164794
X          6.92647081       3.15853033       7.36034387
X          4.22477750      12.63503283       4.70743290
X         10.27102067       3.56492223       4.61648660
X          4.88211599      15.87250291      11.89225777
X          5.91775033       1.30900989       3.10405570
X          5.15363183       5.97726463      11.30860039
X          4.43065583      12.62479388       7.84387711
X          4.63994588      11.03058320       2.46094330
X          4.16749956       5.30973718       3.71515253
X          9.92747210       9.26346588       1.41795479
X          4.08125071       0.20835013       8.53139174
X          5.96399236      15.94624706      14.38682021
X          9.81658159      12.23824414       8.16943613
X         10.70710149       6.10890208       9.61966192
X          6.65889356       3.86768972      11.50954839
X         10.50832581       7.11217486       2.70625688
X          3.46549458      15.81492134       3.29804865
X          3.88772295       2.02268634      13.20975340
X          2.61042787       7.41087594      11.57702125
X          2.88089170       2.74865546       8.22613905
X          3.99819735       9.38114765       4.00707252
X          2.31886836      14.01812245       8.04019631
X          3.42813627      13.21485967       1.99640848
X         10.14880978      15.57063695       1.44866356
X          1.56093144       4.71147902       9.82833278
X          1.58140155      14.72278572       4.74538935
X          2.52908501       1.65865776      10.86467012
X          7.50658719       5.43911202      13.61170849
X          7.17052841       0.36452253       7.33508807
X          4.33689512       9.60702970       8.97418985
X         10.45112306       6.41874531       6.68250585
X         10.48948763       6.25102684       0.62428764
X         10.83431262      13.42107890       5.85904864
X          0.64707811      13.49238048       2.28832597
X          2.67389809       7.34645078       5.98473504
X          9.00350336       2.19029224       2.28695868
X          0.89265972       2.68513118      12.09563280
X          9.04225226       8.38084469       4.79816071
X          4.68953272       2.14458699       6.36987998
X          1.33558842      15.13807162      11.64711883
X          5.52969652      13.42159554      14.35795116
X          4.48374452       3.12627673      10.93321318
X          6.50854929       8.45944655       9.18583235
X         11.89957679      15.70471199       7.15568440
X          0.71631834       7.76501931      13.52812795
X          9.43664549      12.55598043      10.65542609
X          2.16582098      10.98773776       3.06955550
X          8.31058128       2.38961320       5.02269183
X          9.62259318      12.90084641       2.91459693
X          8.58329707       9.75378697      14.26420716
X          0.64873028       8.61347815       7.44204855
X         11.39323395       8.31805134      11.77063323
X          5.21319634      11.46451231      10.87848286
X          1.45811047      11.86013400       0.34961726
X          9.73670305       8.87764895       0.99538589
X         11.15654094       1.35760765      11.78910657
X          8.36291471      10.42739733       3.29181430
X          2.74631375      12.78097848       5.58639126
X          7.81450809      14.11769554       0.31808832
X         11.34425286      13.79139576       9.35541992
X          9.52534641       4.40444032       7.52186921
X          1.81977761       9.26883611      10.13865580
X          9.96472841       0.54507724       4.48472975
X          9.28005969      12.31559670       0.27089517
X          5.66182427      14.04699351       2.76567230
X          6.67939360       8.99502719       2.41210985
X          0.71249044       3.50542667       6.25215943
X          8.98128683       4.53271344       2.38836329
X          0.34731483       1.32258543       4.88553896
X          6.83667850      15.95589028       5.22093365
X          1.84990403       6.08910022       3.76445932
X          8.24854385      15.28690886       2.92266089
X          8.35418755      14.12618954       6.55889599
X          3.62190993       6.81121529      13.86467913
X         11.90191822       1.15132328      14.17770721
X          2.99750269       4.47238999       1.15707596
X          5.37890273       7.34337046       6.70793610
X          2.65936126       0.53080913       6.20601332
X         10.49154392       1.16164351      11.94787243
X          3.07761847       7.38008017      11.23617421
X          8.96701400      12.78115471      10.88704379
X         10.62780702      15.98367818       4.14338153
X          3.35594360      15.08383666      13.94651131
X          2.30030861      12.24353845      10.32608223
X          7.58966988       6.36971065       7.49289786
X          0.41074597       6.14809646       4.78358092
X          5.22315936       9.00307853      10.96020568
X          7.49141951       6.09941301      10.69064838
X          4.46956461       2.82897271      10.48806627
X         11.06332001      10.81593523       3.53252258
X          5.49180443      10.42925391      13.62316369
X          3.20818298       0.48479076       3.46118550
X          1.46356609       2.61945157      11.92995275
X          5.17642126       1.89497116       6.48107640
X          4.07025035       5.15367147       4.20242282
X          2.30600806       9.35474740      10.35252943
X          5.73159313      12.98500325      14.11959019
X          1.63120709      14.99152636       4.28587721
X          4.78935708       9.98569283       8.96528319
X          7.22263767       2.75186705       7.07604167
X          8.58788449       9.91609300       3.13644783
X          7.81999476       9.45098792       0.47260450
X          1.78864833      15.44573592      11.82109466
X         12.00590310      13.60744704       3.14937774
X          9.17815494       5.67088169       5.04616728
X          7.10120728      11.81633095      12.65825944
X          9.03277366       1.36732110      14.16881630
X          6.05222923       5.33774456       1.28853109
X          4.97222731      11.49993851       2.45752771
X          7.05487923       3.92868197       3.89276198
X         10.72379026      13.63053730       5.36259533
X         10.22839752       7.06074749       3.24529625
X          2.67293876       7.94818127       6.06309389
X         10.42391774       3.06553220       4.88686915
X          2.69323696       5.07759484       1.42085892
X          6.31624444       8.98268948       2.91418159
X         10.83092832       6.53991531      14.42062122
X          1.12752704       9.19128110       1.12099916
X          4.79624935      11.42035800      11.19521117
X          7.23624154      14.22888650      12.05969482
X          3.81482556       8.78616061       3.89443379
X          5.78734219       4.95317042       6.13942142
X          1.16244598       3.86208968       6.45951287
X         11.48899180      14.36100238       9.20617209
X          3.35862537       7.55961574       8.75485612
X          3.29463006       2.93473021       7.97017556
X          8.96065652       2.30860658       2.84551200
X         10.43227464       6.86579482       6.98920666
X          0.36981862       1.79833534       5.14493016
X          2.89029192      14.30020673       8.18146189
X          1.41644095      15.89830444       1.97649366
X          1.64789782       4.45132128       9.32787859
X          3.23688483       5.18505190       7.18390099
X          7.50836171       8.27707608      12.45219118
X          3.51436995       7.44626797       1.95418794
X          3.00890079       4.48052981      12.59966702
X          8.26032033       7.45309213       1.81590611
X          3.34582483      13.49752659      12.49138840
X          6.60767767       7.93216857       9.50141859
X          8.89347157       2.61221194       9.80780398
X          8.55518176      14.97448233      10.01912532
X          9.36202969      10.05369256      12.25930739
X          9.90272301      12.30146475       7.56480079
X          5.87873076      14.62367850       2.77707751
X          6.69443089       0.30089432       7.54516227
X          1.75086321       3.47206209       3.51012397
X          5.18841080       4.31352700      14.01011731
X          7.60287346       3.30906422       0.71066387
X          0.75207629       0.54590770       9.21960161
X          1.52441969       8.46635478       3.71657396
X         11.04516166       3.31683853      14.07977942
X         10.90684987      10.57844702       3.92410077
X          7.42093984       9.20213425       6.30136730
X          6.64349601      15.34084821       5.44221327
X          2.96553115      13.58170764       1.95066862
X          9.81406807       9.50407233       8.23124789
X          2.47815535       0.95895709       6.08194267
X         12.05037316       5.52372851      12.04831512
X          6.10398666       0.87687775       9.74802158
X          4.61324939      12.04518815       7.77958616
X          1.24203232       6.67813541       1.68077115
X          9.43082119       8.61321488       5.11225551
X         11.96377608      10.61896641      14.04202895
X          7.34621041      10.42070672      10.33061410
X          0.97587305       5.69468441       7.64810239
X          9.05843372       4.32113041       1.74720234
X          0.73079827      10.43209358       5.47159251
X          5.49748925       4.52120961       8.70863807
X          6.69316447      10.16334599       4.85608211
X          4.03746267       6.56271817      13.81208538
X         11.66292465      10.92662173       9.96592329
X          7.53516684       6.88715424       7.29601919
X          4.36006570      15.82427100      11.80320994
X          0.72398821       0.87616923      13.95862971
X          7.82287365      15.60025018       3.16759844
X          3.95434903       0.74193451       8.24586515
X          7.93815168      14.04572643       6.21208971
X          9.46916283      15.43567285      12.42274661
X          5.50365971       7.90737842       0.34442257
X          2.51980972      10.80698276       8.14377606
X          3.66430814       2.11236557       2.06743940
X          5.17110739       7.64287597       7.04211184
X          3.77546726       2.35574075      13.83101519
X          3.89676086      14.06946523      10.14352694
X          9.32625058       3.94063884      11.72610468
X          9.07849668      11.59932078       4.98319442
X          8.34079543       1.93455142      12.15281639
X          4.68054420       5.79844827      11.17606164
X          9.13018478      11.73262816       0.36402728
X          6.31363586       6.35788380       3.83641230
X          6.01827074       8.12517543       0.31864650
X          3.69250299       9.88312004       6.64471005
X          1.20640126       2.95617429       0.42997841
X          9.33706589       2.13464901       7.35685916
X         11.08173667       6.36028263       9.85519407
X          9.81355409       7.20820337      12.76724534
X          4.36031899       9.17371893       3.66863207
X          5.16966179      14.94910216       6.70225424
X          0.55016433      14.67451729       0.12905306
X          1.93547426      11.33412562       3.32328952
X          9.89386855       1.92638001       7.28039687
X          7.48237068      12.42830527       1.53434158
X          2.77928491      11.99844057      10.37397644
X         11.81765269      10.31897659      13.57547423
X          6.26433765      13.34335165       6.18985173
X          3.84256815       2.32652690       3.99209340
X         11.16648715       3.85030820      10.50062332
X          4.94080208       8.50426170      10.79603666
X          6.42136960      14.54163183       8.64263674
X          5.95582564       0.15003720      14.04690426
X         10.68769709      15.77585777       1.50372713
X          1.77026969      11.54768662       0.56946120
X          7.26824754      14.32356256       0.32968048
X          2.42555571       9.63671789      13.35639752
X          7.02868911       8.49120679      12.73860494
X         10.19364676       8.30785515       8.86241855
X          9.08584752       4.61319097       7.27213477
X          5.03390701       5.37803703      11.24250385
X          9.45766742      12.33995686       3.04752895
X          5.56142401       1.05938422       2.82809496
X          0.76001779       0.37169781       9.90397827
X          5.53317824       5.40700321       1.37937122
X          7.48212168       5.24214772      13.05484924
X         11.91939025      11.37217628       9.92682774
X         10.87317815       3.40089328       4.71599461
X          2.17293303      14.47932151       8.31100338
X          3.62149867       5.23020144       6.74947226
X          9.22073340      11.37129087       5.42915490
X          0.56526293      15.66880869       7.18951439
X          7.02031226       3.73768955       0.73374561
X          9.30426013      10.59499550      12.08295156
X          9.36429192      12.70610628      11.18828945
X          3.83670085      15.51698690      13.90331905
X          1.21664173       9.04094695       3.72275549
X          1.62898249       6.72548102       1.22733556
X         10.98396997       3.72616818       9.99119280
X          7.74921017       6.04008471      11.20158965
X          4.75086069      11.88092707      10.94085207
X          3.42302530       7.23557649       2.50924998
X          4.30371088       0.40517563      11.50684606
X          6.45404071       4.13321631      11.07945439
X          8.87211309       5.47884483       5.50877205
X          9.56527362      11.95759290       7.72611438
X          8.65672831       1.46937334      12.06053471
X          5.48518851       0.74464921      10.07008063
X          5.89546173       4.67502560       5.66052051
X          5.36486912      13.19904262       0.39514375
X          3.95920546       3.13953681      10.67819233
X          6.00797080      10.18697851       4.78551386
X          3.39864496       7.20851091       8.25333743
X          5.69984579       4.52393887       9.28066799
X         10.82430307      11.09815130       3.92777562
X          2.81728867      13.01145223       1.95620964
X          7.50413652       9.13659646       6.98611024
X          0.78146913       9.51207020       0.78436892
X          0.76048704      14.12577943      -0.01854352
X          8.00307006       1.95621361       5.34299661
X          2.06675335      10.44606266       7.98089085
X          8.98603519       4.99740194       1.98958078
X          3.06359156       4.97162446      12.28410672
X          5.56704746       3.94158812      14.15247848
X          7.13354291      14.28540705      12.66660194
X          1.48841939      11.85630115       0.94200369
X         11.20141699       6.23168604       9.31458920
X          4.97866389       7.12820572       7.06083717
X          8.24137333      15.38801788       9.68598433
X         10.12257008       6.66357067       2.74869784
X         11.26362822       3.46503471      14.55206836
X          1.62949105      10.89566240       3.22525531
X          1.05547213       8.74000944       6.83702788
X          5.76133956      10.13652790      14.04476944
X          7.47018089      11.38681275      12.62447546
X          3.56522550       1.72348562      13.49731365
X          1.23376593       3.18998795       3.84886752
X          4.60171029       5.02156706       4.00207734
X          9.55903764       1.38784381      13.98402774
X          4.93488117       2.35281619       6.78178763
X          8.57950990       2.87137995       9.26062271
X          3.17521315       7.49314336       6.12210075
X          0.94052540      15.90156091       1.60486252
X          2.72176101       0.93096342       6.60655749
X          1.27728625      10.16618641       5.78341138
X          3.57589189      10.41609730       6.56298427
X          9.35969928       1.99726285       2.64139396
X          1.12364238      14.91130858       4.54779361
X          3.62113182       0.21007518       3.56187091
X          9.17256117       4.59349695       7.79162459
X          9.02025293       4.27173015      12.20195857
X          0.66161051       7.28785426      13.15826668
X          6.38305541      15.74394310       5.10133433
X          4.12051995      13.54312182      10.18415569
X         10.40659167      15.43361197       1.85622479
X          6.95324023       8.18977191       9.06814546
X          6.08494890       9.20593263       2.50655044
X          2.15249770       9.38538591      12.78730833
X          3.72118545      13.07848223      12.06487231
X          1.65019399       3.16706811      14.24620360
X         11.62692530       5.39396424      11.69413821
X          7.98897444      15.61797750       2.66065876
X          9.12451936      12.75565807       2.56642091
X          6.52366049       3.89883960       3.72978561
X         12.11298316       1.58326409      14.46660433
X          3.05957058       7.01218176      11.71539791
X          1.22196803       4.34079403       9.75721453
X          8.88295784      10.39811291       3.45837550
X          5.72828788      15.94944703      13.87507103
X          9.28175773      12.17332029       0.70548784
X          7.16012973      15.69966169       7.28297249
X          0.84116783       3.85840627       5.88490387
X          3.98673021       2.50082361       1.94192547
X          3.63685368       6.37605116      13.49076132
X          7.09752105       2.70069416       7.56872998
X          6.10716959      14.28922590       3.09646609
X          4.24292660      12.12865196       8.12685231
X          6.89571151       3.78819549      11.08098232
X         10.03368448       6.51092211       0.74403540
X         10.68261873       1.54056720      12.22724094
X          5.81050495       6.49825615       3.92251504
X          4.36746353      10.01219310       8.51108036
X          7.16586847       5.63400862      13.28446121
X          5.79943313       0.75405412       3.23427070
X          5.11947536      10.92549820       2.64186521
X          3.50429880      12.49245300       5.19057605
X          9.93766948       6.50897834       6.81171886
X          3.55870949       2.59681343       4.46955487
X          7.73959388      13.92855952       0.76507802
X         11.83197652      14.01114842       9.07061940
X          3.00164357       2.51171719       7.73040980
X         10.64183078      13.09953467       5.53336835
X          9.82539999       0.28789470       3.87212511
X          3.59405860       0.46258173       8.54501819
X          0.64315794      15.18115491       7.05242711
X          8.31692159       6.90835578       1.60222548
X          1.14295341       2.50858241      12.53323405
X          9.64113256      15.51470464      12.92850912
X          4.30059280       9.02339166       4.17591398
X          5.87750816       9.94421990      13.58310156
X          7.89840598      10.43809500      10.56168712
X          0.75018390      12.98368672       2.45036205
X          1.79437935       9.26015130      10.76370560
X          6.37991366      14.29920721       7.94533301
X          7.93927836       6.41121131       7.06675546
X         11.74186700      11.21413030      10.38312185
X          3.50971230       6.91621300       1.97050010
X          9.07070191      12.23398918      11.05348720
X         12.13308355       8.29609021      11.92449885
X          6.04350748      13.50977893      14.22783122
X          3.22466092       5.06224674       1.45291997
X          9.88450875       9.49176210       0.70337513
X          7.41587866       6.69742236      10.93938608
X         10.55472431       3.52446016       5.10198313
X          1.16854966       5.93367267       4.38363125
X          2.73580696       6.97367226      11.29066956
X          0.91803736      15.88118874       2.15579463
X         11.77631848      14.13669998       9.55419124
X          0.92181186      13.43327383       2.69598307
X          8.67829342       5.75792556       5.07718890
X          8.44364693      13.54574287       6.36443864
X          1.13999335       3.42216336       5.97510768
X          5.28630694       4.81691496       9.15777680
X          8.99136080       4.52661020      11.74102737
X          6.68736868       4.39665307       3.79419456
X          7.59109510      11.77979015      12.29095492
X          3.05502723       9.86468028       6.39149452
X          1.51620362      15.26910697       4.82691815
X          7.51873802       3.03005871       7.49557234
X          7.89418426       9.41141869      14.24573349
X          5.92445914       5.19598290       5.58025487
X          1.33476288       8.74165764       4.15022967
X          1.23836521       3.70698994       3.71753416
X          3.33520730      15.61530731      14.10294529
X          5.64351087      14.45226109       3.19256289
X          9.95986351      15.38077664      12.52711131
X          3.11835050       7.65745672       8.24989216
X          3.01416214      13.30850537       2.37126531
X          4.66003278      14.51411290       7.15715546
X          2.35154141      11.91564892      10.67702687
X          8.22080879       6.97278721       2.10537996
X          6.72858642      14.16065319      12.34027223
X          4.55399955       3.45305805      10.52350549
X          4.26694971      10.13959229       9.00383825
X          6.23658643      10.36197431       4.33659011
X          8.13294479      14.89476293       9.57919042
X          7.06474700       5.14169159      13.53967695
X          1.44554933      14.46947963      13.76790960
X          3.49177816       0.32598274       3.07162521
X         10.25793649       6.84626075       6.39252470
X          6.03029469       6.76554016       3.22690889
X          9.42915988      12.45370176       7.72506383
X          6.73048098      15.55951039       4.72685852
X          4.63080704       1.83653443       6.80837324
X          9.42806772       4.73754554       2.11608589
X          3.69294316       5.66277841       7.08800518
X          7.05888791       3.38750774       0.32657924
X          7.67418708      10.88552178      10.45392505
X          0.49055454       1.17469035       5.39090037
X          9.19219599      12.79319104       3.14622566
X          4.12558999      12.12809324       7.62689055
X          4.10701994       1.66224213      13.59514108
X          8.83417193       2.43397342       9.10419617
X          5.12446408      11.75818963      11.38405848
X          1.80050777       4.19909996       9.89076892
X          4.78009621      11.18832461       2.92853706
X          8.87148581      12.33895824       0.70940059
X          4.77356642       3.76359034      14.18122317
X         10.30574610      13.42428355       5.77744369
X         11.48985685       1.59969045       5.58554004
X         11.39110080       7.60221949      12.09856157
X          9.76661412       8.99175920       8.76303461
X         10.17280345      15.92644114       1.88185479
X          8.90670438       1.72349318       2.66157869
X          8.83174016       2.10424843      11.58915375
X         10.62694478       6.85628760       0.71595278
X          3.18276400       1.30067231      10.45149443
X          7.01321401       4.26123204      11.37726986
X          3.54888004       2.69700441       2.21285613
X          0.87343772       7.05791130       1.19008563
X          9.65345478      10.37362100      12.77335290
X          2.89248634       7.59139425       5.53180385
X          2.38725732      14.45901309       7.80063360
X          7.37205307      15.99663259       7.85655223
X         10.60435677       6.71318701       3.06031187
X          5.83397698       5.95424432       1.67198986
X          7.26204677      12.55767006       1.80585167
X          1.10493986       7.94587823      12.84972692
X         10.14409209      15.89132833       4.29125729
X         11.13841802      10.47062025      13.84263209
X         11.16960126       5.81181922       9.80603084
X          8.39784274      10.04784011       3.81231127
X          4.01648280       0.70738779       8.99359355
X          1.16684876      10.51990412       5.17053827
X          1.97414319      14.76471746      12.29503892
X          5.37363593       1.22892808       3.27337695
X          2.01889308      10.69338023       8.55406154
X          7.81852013      13.90923383       6.62710822
X          7.98964652       6.64688482       7.54819478
X          1.01789743      15.86899127       9.12434963
X          7.81298200      14.47962835       0.61591719
X          3.50702733       3.16830636       3.80322586
X          5.67855644       8.34044694      11.00499247
X          5.29746912      14.53980847       6.55641695
X          2.10939493       9.97512091      13.10227495
X          6.53060040       8.00206840       8.80155016
X         10.55084164       1.71764788      11.67186719
X          7.12607741       8.74093450       6.87436650
X          5.81805254      14.23875349       8.42118244
X          1.08647343       2.08419803      11.91152229
X          1.82701430      11.34876586       2.79191365
X         10.22441663       6.86368633      12.68657177
X          6.16138611       8.50241228       2.45581088
X          4.23802891       0.29372766      12.24169836
X          1.89280215       3.21746486       0.24951182
X          2.76509881       4.36657179      12.03379954
X         11.50160984       1.02696045       0.43633883
X          6.16372791      15.51001267      14.06191927
X          9.62119250       1.85668350       6.62973148
X          9.02228825      11.84744165       5.60277643
X          3.38562872      12.89906791      12.43655287
X          2.72906898       3.17010249       7.80585852
X          0.51122600       8.78581150       1.01787621
X          3.94615103       4.67262104       3.73592690
X          0.80578754      15.60929230       6.64262882
X          7.53329575       9.88745988       0.28173617
X          1.87586614       9.79818398      10.29589869
X          6.11510331       0.33138119       9.81490877
X         10.51077301       3.34706922      10.49856352
X          6.97348512       8.15235582      12.00319380
X          7.54892255      12.36326782       1.85723383
X          8.66204117       8.93330233       5.18490775
X         10.03623990       3.30288443       0.33027988
X          9.07575458       4.06034508       7.62802227
X          6.29463874      13.50992784       5.86379239
X          2.23117154      11.68786758      10.17379747
X          8.92924175       1.85740575       5.30166113
X          3.65104290       6.35835113      14.15442703
X          2.96908602       4.63807308       1.90120462
X          5.82735946       7.61836989       0.90267565
X          2.17255430       0.64078724       6.37499716
X          8.40614193      15.84020768       2.95420673
X          4.72723162       5.76520422      11.69709175
X         11.49333115       5.99446896      12.29229788
X          1.70236852       4.93729229       7.51430956
X          5.59065422       7.33762046       7.21971375
X          4.14104935      13.93234225       9.41801453
X          0.61787196       8.03657409       7.17893112
X         10.53179726       8.74978738       1.17266856
X         11.42237485      10.81353093       3.99074291
X          1.26939988      11.38180372       0.53764086
X          3.58599411      12.85697980       5.28223666
X          1.78204416       1.16982014      10.74253096
X          2.63632933       7.48051692       3.93140823
X          9.34576447       2.06648165      14.51991928
X          1.01914964       6.15648623       4.10467474
X          3.38514259      12.77883546       4.96004135
X          5.90666286      10.20869337      10.04478299
X          2.44255721      14.37690868      13.04268018
X          1.42883717       8.57553964      11.98566934
X          6.62726240       7.64291749      10.92432333
X         10.20700501       7.05820688       4.79740645
X          7.81653362       9.65011459       5.20457725
X          2.91280382       7.75488417       3.89283769
X          5.58567455      11.81201651      13.01795022
X         11.39055870      14.44104851       4.30661718
X          1.17434745       6.32188944       4.42285206
X          1.94380028       9.27445368       6.42867711
X         10.51097656      12.58700574       9.45074448
X          9.89307033       1.61111667       5.50874757
X          5.27476851       4.00643269       7.28314911
X          8.89063667       3.08287057       0.81161950
X          2.35748695      14.96829995       2.77143142
X          8.61390772      14.34983689      11.41923563
X         10.25846988       7.02865316       4.79531691
X          9.97681007      10.23083704      13.96794666
X          6.65662707       1.49917071       6.17034491
X          4.29077438       1.01227938      10.32878246
X          5.90459884      10.24179573      10.03656540
X          5.87338233       7.14375434       2.06974253
X          3.13171777       3.40792538       0.19889081
X         11.36736156      14.41646610       4.31031747
X          3.57728099       8.35757228       9.97317965
X          2.36863340      14.98717180       2.74100948
X          1.93221657       9.27124068       6.43919690
X         11.45018455       7.18789465       8.23255649
X          3.10810595       3.88665412       3.21169256
X          5.09701523      12.89035742       2.03640681
X          8.59937631      14.40655353      11.40975300
X          5.63224699      11.79498606      13.01391680
X         10.49842014      12.57921675       9.44653235
X          5.88189701       7.14749513       2.06573189
X          8.19123957       8.99928026       1.94248969
X          2.36761570      14.96863575       2.79539125
X         11.53647430       7.97919435       1.32621831
X          8.60751672       3.75601325       3.87389966
X          5.10139056      12.89463929       2.00017108
X          2.53747438       3.36229488      11.11601399
X          2.01324935       4.34486244       7.55117793
X          8.61104449       3.75018966       3.84926680
X         11.46535060       7.18162468       8.21977259
X          7.83926508       9.68627735       5.21632998
X          9.56311523       2.77337178      11.00229675
X          6.66136991       1.52122751       6.18915304
X          5.26194515       4.01291927       7.28456132
X          8.61583201      14.36354936      11.41150155
X         11.39229089      14.41753209       4.33562718
X          6.62643607       7.64995742      10.92408204
X         10.53828683      12.57324204       9.42627337
X         11.08451067       6.87967743      12.86536723
X          5.90002224      10.21258444      10.08714977
X          8.18921994       8.99049184       1.98142557
X          3.58728661       8.36696015       9.96483459
X          4.30619925       0.98823378      10.32336093
X          5.64066320      11.79711117      13.01688103
X          4.23782320      14.11407280       8.25055858
X         11.53286374       7.98462257       1.32270574
X          9.56198065       2.78489765      10.98898714
X          2.51630725       3.37028985      11.08557009
X          3.13411831       3.86899649       3.18920505
X          7.83034678       9.67617586       5.21134172
X          8.89620007       3.05658327       0.84040583
X         11.08368228       6.88277419      12.86396989
X          2.45593150      14.43385398      13.04589678
X          1.45594016       8.55174422      11.97319173
X          0.87974640       0.85824629      11.00362277
X          8.61981691       3.75620536       3.84750775
X          5.27976160       4.01416552       7.28300225
X          2.00132262       4.35673296       7.55149159
X          2.94585624       7.77689792       3.89566651
X          0.87575859       0.86913165      11.00362380
X          6.66698412       1.49293668       6.18894424
X          3.08992756       3.91672224       3.22321715
X          3.55666954       8.36684432       9.98086567
X          2.45022125      14.40763599      13.04821717
X          4.24419331      14.14938644       8.25901306
X         11.45223850       7.19200664       8.20618005
X          9.90327418       1.64022976       5.49784834
X          9.95740391      10.27168991      13.97287413
X          3.14273910       3.39232657       0.22430555
X         10.18481512       7.03091929       4.79781408
X         11.53674618       7.98496399       1.27582116
X          5.10713693      12.88793932       1.97583990
X          8.18761362       9.01829660       1.92153219
X          9.94847497      10.24698916      13.98030679
X          1.44573490       8.53327728      11.97984426
X          5.87355552       7.15013285       2.06706607
X          2.52390804       3.38211456      11.07404843
X          4.22465590      14.11876167       8.25632431
X          3.14538245       3.38149276       0.21749686
X          9.90363699       1.66832333       5.48648100
X          1.94625680       9.28045303       6.47052534
X         10.18834166       7.03560047       4.79538813
X          8.90743998       3.06609775       0.86387601
X          1.98274293       4.34420480       7.58612028
X          5.90218432      10.19463363      10.07389758
X          6.61548489       7.61534069      10.93437484
X          8.61074390       3.76121263       3.85881087
X          5.63477928      11.80726566      12.98592485
X         11.40417439      14.44314864       4.35325524
X          5.08283456      12.90310943       1.99671638
X          0.94341940       0.70599451      11.11501139
X          8.64088990      14.38294554      11.38844965
X          2.35421409      14.96750642       2.74721280
X         10.49102216      12.61214167       9.43725812
X         11.09130095       6.86642712      12.88096017
X          4.31673141       1.01015992      10.32629097
X          5.28332686       3.98145752       7.29351917
X          3.66527840       8.35596238      10.00107608
X          9.57565075       2.80184864      10.99151760
X          2.91363287       7.78929017       3.88558122
X         10.13318887       7.10821122       4.81011224
X          7.82758811       9.67259829       5.21714971
X          8.59713635      14.38098244      11.42597699
X          6.71750839       1.51127284       6.16507315
X          4.23081078      14.11685228       8.26060948
X          5.63470097      11.80641689      13.03563872
X          9.59463788       2.76084942      10.94796801
X         11.40966435      14.43661843       4.33649539
X          2.90568006       7.77548438       3.88203656
X          8.17410171       9.00185521       1.93928595
X          8.61808682       3.73817851       3.85812901
X          5.28395787       4.03250082       7.28256835
X          9.96780293      10.23672806      13.96067265
X         10.51228571      12.54904080       9.45686690
X          1.93419535       9.26753838       6.45448866
X          4.30841431       1.03542720      10.32990271
X          2.53352264       3.39518448      11.08543898
X          3.10434227       3.88590700       3.19080811
X          2.34385333      14.99604336       2.77541786
X          2.44576304      14.41000653      13.05447961
X         11.52382065       7.98719720       1.32104912
X          5.89258561      10.21281466      10.06566418
X          3.57181630       8.37634400       9.96070699
X          5.87944708       7.14457129       2.06548561
X          9.90197038       1.64785064       5.49860171
X          5.18010144      12.88814666       1.98951262
X          2.00389559       4.34362264       7.56239972
X          6.68950862       1.48925935       6.19363614
X          3.13974108       3.39340945       0.21372433
X          0.91121370       0.86611062      10.99622881
X          8.89550852       3.07451685       0.84159045
X          6.61585011       7.64029447      10.92668872
X          1.46728453       8.54946071      11.96726871
X         11.49454254       7.22714878       8.21130939
X          8.37899586       8.99746382       1.85060525
X          2.48007089       2.90100514      10.96644520
X         11.83094432       6.91827624       8.12449254
Fe         3.11190500       3.88261200       3.20152160
Fe         6.67119890       1.50159220       6.19142570
Fe         2.00253030       4.34957790       7.56150510
Fe         4.30911220       1.00986560      10.32671740
Fe         2.52846640       3.37611200      11.09176680
Fe         3.14116070       3.39017740       0.21598920
Fe        11.53345520       7.98163240       1.32388300
Fe         2.91721570       7.78220410       3.88851250
Fe         1.93815450       9.27768270       6.45056650
Fe         3.57496020       8.36562200       9.96912290
Fe         1.45694200       8.54903410      11.97531460
Fe         5.87870460       7.14550260       2.06631030
Fe         2.35701720      14.98158670       2.76766890
Fe         5.09832950      12.89429390       2.00159580
Fe         4.22780190      14.11786270       8.26064740
Fe         5.89732160      10.21215080      10.06358720
Fe         2.44943400      14.40874160      13.05294750
Fe         5.63512320      11.79825540      13.01425570
Fe         8.60974870       3.75364890       3.85525830
Fe         9.90009570       1.64751320       5.49692260
Fe         5.28244590       4.01342120       7.28564470
Fe         0.87936340       0.86823200      11.00246440
Fe         9.56769420       2.78207580      10.98800980
Fe         8.89554380       3.06677800       0.84299180
Fe         8.18404600       9.00134960       1.94086600
Fe        10.18730280       7.03271270       4.79743610
Fe         7.82955600       9.67321840       5.21324660
Fe        11.45818380       7.18152340       8.22056740
Fe         6.62299680       7.63891280      10.92601620
Fe        11.08142960       6.88158250      12.87236930
Fe         8.40026300      13.02587620       1.43363300
Fe        11.39812740      14.42623640       4.33128660
Fe         6.54577320      14.47660330       6.55898600
Fe        10.51368580      12.57777250       9.44441600
Fe         8.61123420      14.37194240      11.40867130
Fe         9.96736140      10.23767930      13.95837650
O          1.34908130       3.44585290       3.53777680
O          3.79126050       2.63824650       4.29156040
O          3.68116620       2.46689590       1.88961870
O          4.18685630       5.10245710       3.93679920
O          0.27561670       1.41042200       5.13829160
O          2.97733670       4.81472230       1.49971420
O          1.35128370       3.24748900       0.32909840
O          5.71059540       1.13511620       3.08077700
O          1.18736140       5.89720880       7.44695040
O          2.97565020       2.85302750       7.97588340
O          4.88946610       2.07181010       6.58341780
O          4.37299190       3.10962390      10.65935280
O          0.58678470       0.34121250       9.34267680
O          0.54588000       8.49243130       7.16135100
O          0.97255850       3.66703550       6.19145800
O          3.90540020       0.47423490       8.56496960
O          1.13763490       2.52958210      12.12171600
O          2.53799710       1.55539160      10.51388700
O          4.29135230       0.08141440      11.87040190
O          5.20419100       3.98946110      13.94361760
O         12.08639000       1.19189500      14.40110930
O          2.83064940       4.63375350      12.39394490
O          1.61947000       4.42619570       9.69113160
O          3.82610080       1.93387930      13.48179970
O          1.26043640       8.64618220       3.84930530
O          1.22490830       6.66487910       1.35910370
O          3.65742090       7.25367820       2.17347150
O          4.09504600       9.09803750       3.96505240
O          0.63829870       6.13435840       4.66287660
O          1.94574590      11.12651840       3.11345850
O          0.82964840       9.26649890       1.13384130
O          1.63501650       6.11422910       3.91346260
O          2.11262770      10.73428340       8.15101030
O          2.84291060       7.58524770       5.89046420
O          3.63153420       5.23936830       7.03305550
O          5.28407180       7.36643860       6.97478940
O         10.97475050       6.16217520       9.65309590
O          3.59649640      10.05895510       6.35453600
O          1.02595010      10.55668990       5.55513230
O          3.16353830       7.43234130       8.48968240
O          2.44176650       9.73002990      13.00649420
O          0.93417980       7.56189830      13.36031440
O          2.83639390       7.22229370      11.42603210
O          5.77197370       7.77847470       0.39408830
O         11.75812690       5.46467860      12.09844110
O          2.38824870      11.98363360      10.39862170
O          1.96574580       9.40113540      10.36897130
O          3.76758510       6.56593480      13.82912650
O          1.47307910      14.93130080       4.57108490
O          0.62551770      13.34540320       2.55030980
O          1.51127050      11.70497770       0.56481220
O          5.78561720      14.31025360       2.94611210
O         11.06053640      10.81268760       3.82085220
O          3.34436220       0.17707680       3.38474990
O          0.79227870       0.13771200       2.02307090
O          3.10093720      13.30448170       2.06052250
O          2.43897280      14.28882600       8.06217270
O          4.39177760      12.28511580       7.84297530
O          2.96409520      12.76026840       5.45504670
O          6.25860680      14.18722440       8.46006280
O         11.59093810      11.21621000      10.08085110
O          2.53164700       0.76294490       6.29205510
O         12.13973030      15.70530990       7.28897760
O          4.45457640       9.90495270       8.88132840
O          1.06320550      14.29509080      14.15073370
O          3.60385020      13.10845760      12.47091160
O          4.16060580      13.94299350      10.03488080
O          5.74251200      13.24244940      14.35571180
O         11.70888490      10.59322620      13.69750170
O          3.52721540      15.37686710      14.15880880
O          1.65677750      15.15559470      11.64714000
O          5.01130650      11.59783670      11.09788400
O          6.80627270       4.02610420       3.66303110
O          8.23062220       2.05286030       5.07179670
O          9.05490540       2.11024730       2.60345920
O         10.48443480       3.41025360       4.81323160
O          6.65360210      15.69463810       5.10269610
O          9.10897730       4.63185100       2.10024100
O          7.13621150       3.35824740       0.65563460
O         10.00450730       0.19179970       4.24281740
O          5.57479150       4.73694210       8.97003400
O          7.13693740       2.92128650       7.37029180
O          9.61710360       1.83460430       7.22179610
O         11.01891770       3.52798940      10.25324270
O          6.03180160       0.70459070      10.00345540
O          9.25717540       4.42085320       7.58108250
O          5.99700510       4.93497630       5.88294000
O          8.63231960       2.55631520       9.47443890
O          7.31863600       5.42755940      13.38710850
O          8.37091560       1.75841460      11.89736620
O         10.73108230       1.44154530      11.91087740
O         10.91867880       3.52908880      14.36520770
O          6.06543370      15.91127820      14.11983170
O          9.26420140       4.31230790      11.95416490
O          6.77431040       3.94204840      11.27093140
O          9.32878180       1.43901690      14.32351400
O          6.32482970       8.94683320       2.57047040
O          8.08383570       7.12018810       1.82772760
O         10.38134280       6.50657600       0.52001530
O          9.14429320       8.46632860       5.10581550
O          6.12835300       6.68623140       3.80998640
O          8.53626390      10.18615150       3.37638260
O          8.17207440       9.61954250      14.48268070
O         10.40527270       6.90084470       2.95889090
O          7.25957430       9.13394710       6.80938750
O          7.75204910       6.56149830       7.37471940
O          8.86933390       5.52971990       5.08340490
O          9.90494250       8.47323790       9.06089090
O          4.92671320       5.76080910      11.35104080
O          8.98251740      11.50508130       5.37820290
O          6.26915010      10.40049280       4.73881460
O         10.31176230       6.67557620       6.73837070
O          7.25076590       8.42773450      12.37863340
O          7.70949670       6.26647570      10.83887700
O          9.61971010       9.51241220       8.47584060
O         11.58923120       8.10142050      11.63785280
O          5.78710470       5.45290370       1.56751030
O          7.67375160      10.55425860      10.28448370
O          6.65638580       8.17220340       9.15145610
O          9.49460410       6.98209080      12.61890290
O          7.05013700      12.17127470       1.83473830
O          9.26527790      12.02365130       0.36523830
O          9.94300290       9.11380230       1.12479380
O          4.78536610      14.75223870       6.59759020
O          4.83555610      11.19184430       2.58441840
O          8.12067270      15.55116140       2.90654200
O          7.65817820      14.31081470       0.46325960
O          9.39817000      12.74276550       2.96389180
O          6.97462500       0.19772720       7.51809650
O          8.24631170      13.90249110       6.42711860
O         10.68450770      13.40323920       5.62490500
O         11.57096140      14.04507270       9.32362210
O          5.12481190       8.68337490      11.06682860
O          6.17209640      12.98959150       5.79832090
O          4.00925120      12.65442570       4.84385970
O          9.69281120      12.19014320       7.85176180
O          6.99139250      14.31979500      12.27269450
O          7.42512590      11.72462010      12.64955890
O          9.23478040      12.60050700      10.93437730
O         10.32690130      15.63009710       1.64127780
O          5.56854800      10.12623540      13.77225720
O          9.69090830      15.21734230      12.63693010
O          8.47516010      15.07088720       9.70044930
O          9.55596700      10.28560370      12.23261750
Si         0.44737130       3.06773090       4.80638110
Si         4.14375390       1.51852210       3.12297300
Si        11.68364600       5.00034630      10.50583050
Si         3.54108440       1.49104270       7.32973740
Si         0.68061340       2.53278640      13.71133120
Si         4.32170760       0.39585490      13.46524250
Si         0.90755740      10.22529020       3.96462890
Si         2.80719720       6.40216270       1.08510110
Si         1.51532420      10.82521960       9.68098890
Si         3.74129830       6.88556890       7.08588380
Si         1.46889410      10.28580680      14.18106690
Si         3.58422140       6.06193610      12.28860360
Si         1.13378880       0.15684710       5.80135540
Si         1.78686070      12.32001200       2.04637040
Si         0.95755560      14.89008550       8.36620540
Si         3.72918080      10.85527220       7.75463090
Si        11.83443030      15.90141090       1.09521200
Si         3.75712230      12.65197740      10.92168480
Si         5.80524010       5.14632770       4.29760070
Si         9.15538660       0.49975550       2.83174800
Si         5.42538760       4.36923730      10.51899110
Si         8.65874860       2.96811160       7.94629690
Si         6.13350060       4.56350610       0.25110210
Si         9.43567560       0.89931480      12.78961930
Si         5.35037290       9.96289630       3.46560650
Si         9.43076580       6.20261070       1.81680880
Si         6.72623660       7.78415070       7.56391530
Si         8.95724710       5.73771110       6.72417030
Si         6.74151120       9.01975380      13.81981120
Si         7.82850740       5.01723200      11.90313230
Si         6.60375820      15.57084670       3.45784190
Si         9.56420220      11.38392780       3.81653030
Si         7.12484930      15.54123030       9.00142220
Si         9.41134550      12.76893170       6.40508270
Si         6.77390300      14.44904880      13.86284750
Si         8.45682070      11.26834020      11.51099080
